Pd  C  O 
 1.0000000000000000
     8.3099002837999993    0.0000000000000000    0.0000000000000000
    -4.1549501418999997    7.1965847487000003    0.0000000000000000
     0.0000000000000000    0.0000000000000000   16.5235004425000014
  36   1   2
Selective dynamics
Cartesian
  8.2981113330995004 -0.0406116045687682  7.2911987072512696   T   T   T
 -0.0059831282043160  1.6069973743847230  2.6477257109062280   F   F   F
  1.3739702868210806  0.8060414953349092  4.9494492832882164   T   T   T
  2.7765009277573149 -0.0157832261946454  7.2738112987530616   T   T   T
  2.7639559333947092  1.6069973743847230  2.6477257109062280   F   F   F
  4.1410728565851223  0.7942396157338475  4.9194594057430496   T   T   T
  5.5251138949730842 -0.0129794254623584  7.2039259462760841   T   T   T
  5.5339780939965992  1.6069973743847230  2.6477257109062280   F   F   F
  6.9148916111623446  0.8007687939216201  4.9453280406571789   T   T   T
  6.8511326061213476  2.3632317313769038  7.2815348304897203   T   T   T
 -1.3909942085052609  4.0059069345163794  2.6477257109062280   F   F   F
 -0.0085417208766782  3.1911810751231995  4.9283854361306894   T   T   T
  1.3907705069645702  2.3549619591286759  7.4667528249327741   T   T   T
  1.3789448530937642  4.0059069345163794  2.6477257109062280   F   F   F
  2.7425769798375863  3.1866314399210132  4.9461381914096503   T   T   T
  4.1384136323877732  2.3890053085260790  7.1929036831675468   T   T   T
  4.1489670136956542  4.0059069345163794  2.6477257109062280   F   F   F
  5.5282291446495773  3.1909103205812399  4.9191999655076240   T   T   T
  5.5078324151745734  4.7723313389158681  7.1819196429642247   T   T   T
 -2.7759637393047738  6.4047445288005260  2.6477257109062280   F   F   F
 -1.3900459124396545  5.5966455280804883  4.9304630289920315   T   T   T
  0.0129250609530998  4.8313177218665295  7.2518660353848006   T   T   T
 -0.0060246777057485  6.4047445288005260  2.6477257109062280   F   F   F
  1.3682442679461526  5.5945082303465394  4.9286249992816380   T   T   T
  2.7736500261245705  4.7892447316037270  7.1959097957392393   T   T   T
  2.7639974828961416  6.4047445288005260  2.6477257109062280   F   F   F
  4.1412084008355254  5.5993817218230353  4.9129230575631553   T   T   T
  8.3039171555956539  0.0077723115286082  0.3861542053412234   F   F   F
  2.7639559333947390  0.0077723115286082  0.3861542053412234   F   F   F
  5.5339780939966285  0.0077723115286082  0.3861542053412234   F   F   F
  6.9189476247961403  2.4066099058127550  0.3861542053412234   F   F   F
  1.3789864025952261  2.4066099058127550  0.3861542053412234   F   F   F
  4.1490085631971159  2.4066099058127550  0.3861542053412234   F   F   F
  5.5339365444951953  4.8055194659444114  0.3861542053412234   F   F   F
 -0.0060246777057187  4.8055194659444114  0.3861542053412234   F   F   F
  2.7639974828961709  4.8055194659444114  0.3861542053412234   F   F   F
  1.4035404338048141  0.5663946681928018  8.6541066261114334   T   T   T
 -0.1674002319244210  3.2956696734365822  8.4816013485123101   T   T   T
  1.3796552321755886  0.4955717642336047  9.8415652019924185   T   T   T
