Li1 Nb24 Mo2 O66                        
   1.00000000000000     
    22.7851428986000002    0.0000000000000000    0.0000000000000000
     0.0000000000000000    3.8768503665999998    0.0000000000000000
    -9.9730516296000005    0.0000024128000000   15.1282481845000003
   Li   Nb   Mo   O 
     1    24     2    66
Direct
  0.3598811064816607  0.5028980917856350  0.6060777206132407
  0.3672258488174157  0.0079233741601281  0.0454186954984187
  0.6349908252485587  0.0083398703991983  0.9554757755146122
  0.8669233556186706  0.5080626598717691  0.0467492802938904
  0.1313356295077527  0.5091676158207619  0.9547749726067869
  0.2490036644012689  0.0034629451795329  0.1368060572601675
  0.7528530504052076  0.0030755332771657  0.8622478224760439
  0.7485469583623826  0.5032526083909451  0.1382810964175940
  0.2495112412264880  0.5035235138197224  0.8643760758119867
  0.1282948408698033  0.9965892848888837  0.2276408268658318
  0.8688354290852450  0.9987866343287664  0.7668801287788438
  0.6312746240637247  0.4987749931814520  0.2322513869388882
  0.3697377104667156  0.4954428252791487  0.7727500797066081
  0.4190498779386195  0.9667125946833087  0.3798285879055838
  0.5844176102337311  0.9670491532244065  0.6179906038255932
  0.9180205843297660  0.4666789280849546  0.3817362056313842
  0.0819506009814997  0.4660136611104634  0.6207310113919976
  0.2942995742084299  0.0033455740316678  0.4638377145639532
  0.7022235260992896  0.0035728790457200  0.5257485299244611
  0.7982667488479555  0.5036203275072410  0.4721946526236681
  0.2008324400980726  0.5033110830238201  0.5281533434491337
  0.4686609175715309  0.0018172664825864  0.7159006537626180
  0.5365396378256766  0.0019934961308458  0.2866976608729152
  0.9629774878350128  0.5016570115722218  0.7118254809374687
  0.0360287005950139  0.5011228805524941  0.2882035458456298
 -0.0010047476380070  0.2524990968881423 -0.0004268637725866
  0.5003220991814346  0.7530655789753971 -0.0000426073423903
  0.0007667270788321  0.4912501397846945  0.5005542091762634
  0.5002835332628718  0.9907378671384288  0.4999072352269484
  0.1483080342186039  0.0044626058435412  0.9910051688008483
  0.8506150550298105  0.0042062647444312  0.0097637099706125
  0.6493917257791257  0.5043483817586046  0.9907867193782849
  0.3507240015832463  0.5040316518713779  0.0085926006854350
  0.3030686869627222  0.0027717228614866  0.0808283019254974
  0.6964847389590444  0.0037666841413462  0.9180100636466698
  0.8033190891842751  0.5034475651271000  0.0821708778396293
  0.1965060980058236  0.5021779937114594  0.9201883279756226
  0.0331575625449053  0.9985605975369511  0.0982952845212570
  0.9657038271852028  1.0006467471184022  0.9019193081198403
  0.5343687251442006  0.5016642232572032  0.0979678272710890
  0.4658295357385843  0.4994321455371149  0.9008746071407364
  0.4495649332422813  0.0042035437194546  0.1553963572754260
  0.5503382744526932  0.0034887851017311  0.8441595319309602
  0.9499761434532106  0.5036740773937346  0.1566174892511001
  0.0499892627947801  0.5050228646166535  0.8443601061076891
  0.1794701232973201  0.0013754747813260  0.1768299937247714
  0.8205201100260121  0.0033088267792499  0.8230597275250934
  0.6799916386180954  0.5030783741226466  0.1769796205516071
  0.3172160044934164  0.4998045555750985  0.8206316405513271
  0.0495282791496298  0.0010359393432685  0.2708590239175742
  0.9502656894072904  0.0018663656668640  0.7300536831653457
  0.5496760942338854  0.5019117066861396  0.2693105602485069
  0.4491486713863718  0.5016438942023702  0.7246266636738433
  0.3255269685398387 -0.0006738654467641  0.2492913909552460
  0.6753023667893624 -0.0009212735603112  0.7503261036075393
  0.8256417387834425  0.4991768625485884  0.2502708753755627
  0.1732446279171122  0.4999597065607871  0.7514710630362786
  0.4765151608559243  0.9988400757621563  0.3261165581279737
  0.5251766357314198  0.9994927463571132  0.6734207260009286
  0.9767210150595071  0.4991115198818304  0.3276791881803453
  0.0237344236303363  0.4978832578024720  0.6733733501084246
  0.2060355523539620  0.0019133154043580  0.3478215809592502
  0.7927363343410700  0.0019791523618601  0.6509832257541562
  0.7074462732761211  0.5022863004326872  0.3486955805161506
  0.2980790837250464  0.5022324562371635  0.6502920386549926
  0.3521735400277873  0.0004516485609092  0.4230170646816097
  0.6480085641087672 -0.0006202310093731  0.5739550335268473
  0.8530614507928952  0.5001992197345123  0.4257134732777173
  0.1496851058455877  0.5002616020143753  0.5781977532859894
  0.2218751894257104  0.0029013029479714  0.5198503859560335
  0.7787545129967542  0.0031138993490968  0.4809517846977708
  0.7218866645161509  0.5029725953386064  0.5183965386971338
  0.2819713575869497  0.5030162261656271  0.4826091904930458
  0.3779078574260731  0.0025912514563071  0.5957442748487927
  0.6219094119058733  0.0027491312892113  0.4036271389718767
  0.8782003742091036  0.5028189967806032  0.5958549207848163
  0.1226894662351797  0.5023949426468475  0.4053710601113550
  0.0909685506800450  0.9921965824490299  0.6307769279596630
  0.9101687501159036  0.9927186653732826  0.3692302866723471
  0.5903556097861101  0.4926269570537583  0.6310895592344758
  0.4100564415835233  0.4924275777105057  0.3688182429169165
  0.3949527609846974  0.0001676785114355  0.7705262996490967
  0.6057994519566650  0.0013520636771712  0.2314693014655025
  0.8944911650361806  0.5011263704173435  0.7681610680812956
  0.1058330991212219  0.4999358396034325  0.2314325750980974
  0.2752176768959886  0.0030547074664768  0.8966141045672572
  0.7240902223614261  0.0037216080319507  0.1028344759914895
  0.7756708932514080  0.5036597899090197  0.8969461142571322
  0.2242011551719911  0.5034783025906034  0.1038302542777037
  0.4289042861469641  0.0041647339155368  0.9868688421136056
  0.5712606274899459  0.0038972034881925  0.0126313769976204
  0.9278274000878033  0.5033605254397558  0.9864472314893394
  0.0707062303550113  0.5043021266288001  0.0134358366143080
 
  0.00000000E+00  0.00000000E+00  0.00000000E+00
  0.00000000E+00  0.00000000E+00  0.00000000E+00
  0.00000000E+00  0.00000000E+00  0.00000000E+00
  0.00000000E+00  0.00000000E+00  0.00000000E+00
  0.00000000E+00  0.00000000E+00  0.00000000E+00
  0.00000000E+00  0.00000000E+00  0.00000000E+00
  0.00000000E+00  0.00000000E+00  0.00000000E+00
  0.00000000E+00  0.00000000E+00  0.00000000E+00
  0.00000000E+00  0.00000000E+00  0.00000000E+00
  0.00000000E+00  0.00000000E+00  0.00000000E+00
  0.00000000E+00  0.00000000E+00  0.00000000E+00
  0.00000000E+00  0.00000000E+00  0.00000000E+00
  0.00000000E+00  0.00000000E+00  0.00000000E+00
  0.00000000E+00  0.00000000E+00  0.00000000E+00
  0.00000000E+00  0.00000000E+00  0.00000000E+00
  0.00000000E+00  0.00000000E+00  0.00000000E+00
  0.00000000E+00  0.00000000E+00  0.00000000E+00
  0.00000000E+00  0.00000000E+00  0.00000000E+00
  0.00000000E+00  0.00000000E+00  0.00000000E+00
  0.00000000E+00  0.00000000E+00  0.00000000E+00
  0.00000000E+00  0.00000000E+00  0.00000000E+00
  0.00000000E+00  0.00000000E+00  0.00000000E+00
  0.00000000E+00  0.00000000E+00  0.00000000E+00
  0.00000000E+00  0.00000000E+00  0.00000000E+00
  0.00000000E+00  0.00000000E+00  0.00000000E+00
  0.00000000E+00  0.00000000E+00  0.00000000E+00
  0.00000000E+00  0.00000000E+00  0.00000000E+00
  0.00000000E+00  0.00000000E+00  0.00000000E+00
  0.00000000E+00  0.00000000E+00  0.00000000E+00
  0.00000000E+00  0.00000000E+00  0.00000000E+00
  0.00000000E+00  0.00000000E+00  0.00000000E+00
  0.00000000E+00  0.00000000E+00  0.00000000E+00
  0.00000000E+00  0.00000000E+00  0.00000000E+00
  0.00000000E+00  0.00000000E+00  0.00000000E+00
  0.00000000E+00  0.00000000E+00  0.00000000E+00
  0.00000000E+00  0.00000000E+00  0.00000000E+00
  0.00000000E+00  0.00000000E+00  0.00000000E+00
  0.00000000E+00  0.00000000E+00  0.00000000E+00
  0.00000000E+00  0.00000000E+00  0.00000000E+00
  0.00000000E+00  0.00000000E+00  0.00000000E+00
  0.00000000E+00  0.00000000E+00  0.00000000E+00
  0.00000000E+00  0.00000000E+00  0.00000000E+00
  0.00000000E+00  0.00000000E+00  0.00000000E+00
  0.00000000E+00  0.00000000E+00  0.00000000E+00
  0.00000000E+00  0.00000000E+00  0.00000000E+00
  0.00000000E+00  0.00000000E+00  0.00000000E+00
  0.00000000E+00  0.00000000E+00  0.00000000E+00
  0.00000000E+00  0.00000000E+00  0.00000000E+00
  0.00000000E+00  0.00000000E+00  0.00000000E+00
  0.00000000E+00  0.00000000E+00  0.00000000E+00
  0.00000000E+00  0.00000000E+00  0.00000000E+00
  0.00000000E+00  0.00000000E+00  0.00000000E+00
  0.00000000E+00  0.00000000E+00  0.00000000E+00
  0.00000000E+00  0.00000000E+00  0.00000000E+00
  0.00000000E+00  0.00000000E+00  0.00000000E+00
  0.00000000E+00  0.00000000E+00  0.00000000E+00
  0.00000000E+00  0.00000000E+00  0.00000000E+00
  0.00000000E+00  0.00000000E+00  0.00000000E+00
  0.00000000E+00  0.00000000E+00  0.00000000E+00
  0.00000000E+00  0.00000000E+00  0.00000000E+00
  0.00000000E+00  0.00000000E+00  0.00000000E+00
  0.00000000E+00  0.00000000E+00  0.00000000E+00
  0.00000000E+00  0.00000000E+00  0.00000000E+00
  0.00000000E+00  0.00000000E+00  0.00000000E+00
  0.00000000E+00  0.00000000E+00  0.00000000E+00
  0.00000000E+00  0.00000000E+00  0.00000000E+00
  0.00000000E+00  0.00000000E+00  0.00000000E+00
  0.00000000E+00  0.00000000E+00  0.00000000E+00
  0.00000000E+00  0.00000000E+00  0.00000000E+00
  0.00000000E+00  0.00000000E+00  0.00000000E+00
  0.00000000E+00  0.00000000E+00  0.00000000E+00
  0.00000000E+00  0.00000000E+00  0.00000000E+00
  0.00000000E+00  0.00000000E+00  0.00000000E+00
  0.00000000E+00  0.00000000E+00  0.00000000E+00
  0.00000000E+00  0.00000000E+00  0.00000000E+00
  0.00000000E+00  0.00000000E+00  0.00000000E+00
  0.00000000E+00  0.00000000E+00  0.00000000E+00
  0.00000000E+00  0.00000000E+00  0.00000000E+00
  0.00000000E+00  0.00000000E+00  0.00000000E+00
  0.00000000E+00  0.00000000E+00  0.00000000E+00
  0.00000000E+00  0.00000000E+00  0.00000000E+00
  0.00000000E+00  0.00000000E+00  0.00000000E+00
  0.00000000E+00  0.00000000E+00  0.00000000E+00
  0.00000000E+00  0.00000000E+00  0.00000000E+00
  0.00000000E+00  0.00000000E+00  0.00000000E+00
  0.00000000E+00  0.00000000E+00  0.00000000E+00
  0.00000000E+00  0.00000000E+00  0.00000000E+00
  0.00000000E+00  0.00000000E+00  0.00000000E+00
  0.00000000E+00  0.00000000E+00  0.00000000E+00
  0.00000000E+00  0.00000000E+00  0.00000000E+00
  0.00000000E+00  0.00000000E+00  0.00000000E+00
  0.00000000E+00  0.00000000E+00  0.00000000E+00
  0.00000000E+00  0.00000000E+00  0.00000000E+00
