Ni   S                                  
   1.00000000000000     
    20.0000000000000000    0.0000000000000000    0.0000000000000000
     0.0000000000000000   20.0000000000000000    0.0000000000000000
     0.0000000000000000    0.0000000000000000   20.0000000000000000
   Ni   S 
    55     1
Selective dynamics
Direct
  0.3505955475968786  0.5950176089511915  0.4108654301840162  F  F  F
  0.4509071897431126  0.6629497268210223  0.3776512067982449  F  F  F
  0.4128411010614205  0.6620823007128658  0.4977039969477577  F  F  F
  0.5130719138215405  0.7226913701505124  0.4638775113283404  F  F  F
  0.5148524583544888  0.6079611205798627  0.4632250167826274  F  F  F
  0.5772452716256703  0.6649514905778233  0.3780087456486444  F  F  F
  0.6156608262299818  0.6650052975196658  0.4973667430183875  F  F  F
  0.3178274770107921  0.5918878091730934  0.5282260281518590  F  F  F
  0.3516011497531619  0.4883284730199821  0.5849031987610258  T  T  T
  0.4160308373954183  0.5419047194665402  0.4970116039349692  F  F  F
  0.4138130539132999  0.5972756127611453  0.6041324331313124  F  F  F
  0.5143127826176004  0.6641008709260106  0.5701123955547646  F  F  F
  0.5155061470689136  0.5434542306871543  0.5691920710935515  F  F  F
  0.6153703572071868  0.5442461839180555  0.4958164277134747  F  F  F
  0.6170139849069676  0.5990978839296262  0.6033270518941674  F  F  F
  0.3930306506149817  0.5933623870700648  0.2964112916205347  F  F  F
  0.3519596534858376  0.4891979134549234  0.3443223828279034  F  F  F
  0.4533545047504802  0.4904631205954850  0.2706860647085815  F  F  F
  0.4539710521807576  0.5423069642416865  0.3793470272311972  F  F  F
  0.5150351833524595  0.5981018148046617  0.2914991842481507  F  F  F
  0.5168758839805968  0.4387482715863471  0.3592395068233866  F  F  F
  0.5791852338202872  0.4921183922615964  0.2708148734414443  F  F  F
  0.5772913879663188  0.5441771548768436  0.3792305973293784  F  F  F
  0.3130823401179094  0.4877169638915179  0.4649017855172826  F  F  F
  0.3529445818438179  0.3809987816636640  0.5150822488096121  F  F  F
  0.4171647132869697  0.4372844093571058  0.4316840853343176  F  F  F
  0.4546158491617968  0.4369098720880490  0.5490446894185474  F  F  F
  0.5161022317190642  0.4910005533933708  0.4643962695305652  F  F  F
  0.5174893251880474  0.3737722247637048  0.4640145622507641  F  F  F
  0.6161336831937865  0.4396138400595786  0.4315486703923710  F  F  F
  0.5779517633185022  0.4393509321437881  0.5491375133864228  F  F  F
  0.6793799450539985  0.6001161716903303  0.4110112168932660  F  F  F
  0.7122478648574817  0.5964795416420142  0.5282163331240439  F  F  F
  0.6797894908164805  0.4930149170693435  0.5838670022183613  F  F  F
  0.6369358624285746  0.5963856709409407  0.2967887308450733  F  F  F
  0.6807133661188011  0.4931316014129705  0.3448377864401053  F  F  F
  0.7193476588911607  0.4927800878374339  0.4643285131818513  F  F  F
  0.6810062192422510  0.3856862423736276  0.5173586315826054  F  F  F
  0.4549796636747386  0.4950344148859375  0.6620022515100654  T  T  T
  0.5167936069827139  0.5973855608692878  0.6710917234137425  F  F  F
  0.5793103466584840  0.4924313541897538  0.6574103204995044  F  F  F
  0.3919979480264934  0.3781096143907330  0.6278335707223577  T  T  T
  0.4556513452542426  0.3159970596880821  0.5481662449439384  F  F  F
  0.5164523148279000  0.3839680980495759  0.6379940482028956  T  T  T
  0.5799975968538348  0.3186529106058727  0.5508347735718323  F  F  F
  0.6389684768830780  0.3884996800950530  0.6316789489690248  F  F  F
  0.4163441289814234  0.3827804823042116  0.3238475889274636  F  F  F
  0.5177704614655431  0.3879447014713415  0.2563986916865050  F  F  F
  0.6192041289311071  0.3854163016648269  0.3240705256330514  F  F  F
  0.3202520810917216  0.3851803134161353  0.3981175626944158  F  F  F
  0.4166020565111598  0.3161816893850817  0.4295811849673385  F  F  F
  0.5179366450325961  0.3184645034756658  0.3565365348660268  F  F  F
  0.6199866358762917  0.3194232672565416  0.4306112064885134  F  F  F
  0.7146374010208125  0.3896007185072111  0.4000672855197143  F  F  F
  0.5198739800685147  0.2587621627205255  0.4622970239216397  F  F  F
  0.3962665550796859  0.4299480850254075  0.7162735268492778  T  T  T
 
             NaN             NaN             NaN
             NaN             NaN             NaN
             NaN             NaN             NaN
             NaN             NaN             NaN
             NaN             NaN             NaN
             NaN             NaN             NaN
             NaN             NaN             NaN
             NaN             NaN             NaN
             NaN             NaN             NaN
             NaN             NaN             NaN
             NaN             NaN             NaN
             NaN             NaN             NaN
             NaN             NaN             NaN
             NaN             NaN             NaN
             NaN             NaN             NaN
             NaN             NaN             NaN
             NaN             NaN             NaN
             NaN             NaN             NaN
             NaN             NaN             NaN
             NaN             NaN             NaN
             NaN             NaN             NaN
             NaN             NaN             NaN
             NaN             NaN             NaN
             NaN             NaN             NaN
             NaN             NaN             NaN
             NaN             NaN             NaN
             NaN             NaN             NaN
             NaN             NaN             NaN
             NaN             NaN             NaN
             NaN             NaN             NaN
             NaN             NaN             NaN
             NaN             NaN             NaN
             NaN             NaN             NaN
             NaN             NaN             NaN
             NaN             NaN             NaN
             NaN             NaN             NaN
             NaN             NaN             NaN
             NaN             NaN             NaN
             NaN             NaN             NaN
             NaN             NaN             NaN
             NaN             NaN             NaN
             NaN             NaN             NaN
             NaN             NaN             NaN
             NaN             NaN             NaN
             NaN             NaN             NaN
             NaN             NaN             NaN
             NaN             NaN             NaN
             NaN             NaN             NaN
             NaN             NaN             NaN
             NaN             NaN             NaN
             NaN             NaN             NaN
             NaN             NaN             NaN
             NaN             NaN             NaN
             NaN             NaN             NaN
             NaN             NaN             NaN
             NaN                                 