Li   Nb   Mo   O                        
   1.00000000000000     
    22.7851428986000002    0.0000000000000000    0.0000000000000000
     0.0000000000000000    3.8768503666000003    0.0000000000000000
    -9.9730516296000005    0.0000024128000000   15.1282481845000003
   Li   Nb   Mo   O 
     1    24     2    66
Direct
  0.3492896493430414  0.5987220621078320  0.6117603177330255
  0.3674205868023145  0.0048875193300780  0.0458936247535475
  0.6340485048967685  0.0116487477424507  0.9543457589568854
  0.8660484197699119  0.5071825149659246  0.0455479455654925
  0.1310496213564066  0.5084020679859633  0.9553699846572459
  0.2490878313258449  0.0031194493060341  0.1369224178097500
  0.7524283256866254  0.0026132546727328  0.8618382803708259
  0.7480889255776468  0.5039720284043495  0.1377812229372808
  0.2492226011241261  0.5013285246642748  0.8650576527273469
  0.1291195071564913  0.9972244441551226  0.2290897316906739
  0.8689300287781961  0.9987156064721666  0.7672899446939250
  0.6316221972569370  0.4989420047161968  0.2324727008097173
  0.3691250762398027  0.4806898995716438  0.7751894844545236
  0.4193511834516983  0.9695901378736321  0.3790825446755934
  0.5842525933370770  0.9679194383351698  0.6175099544282175
  0.9176607546488393  0.4665235865090506  0.3818061190122689
  0.0815716791896035  0.4630568709474343  0.6208147346088937
  0.2956419004000000  0.0281051790275349  0.4646803574998855
  0.7026191042366996  0.0039818074903070  0.5260344451712439
  0.7985859910546798  0.5037287382022608  0.4727600442085819
  0.1983324989071122  0.4982518721473039  0.5259752408130985
  0.4678168539114048  0.0192632624541065  0.7143164118846751
  0.5372578707831593  0.0028950844100676  0.2867591311351028
  0.9631534645182082  0.5012612776048100  0.7125698530515305
  0.0343680370871852  0.5011072508184573  0.2859648849117697
  0.9992355221358239  0.2512332107123715  1.0003035420506230
  0.5005746317180545  0.7499477396557884  0.0001431666097748
 -0.0007861444448856  0.4887484834778764  0.5010806764692919
  0.4999769479503623  0.9917669508461588  0.4998368743455766
  0.1481957737430706  0.0030688461314852  0.9916869864443257
  0.8502885577907884  0.0037233084305680  0.0090314020745651
  0.6488565394317067  0.5058896790303991  0.9897607934317986
  0.3507864026176085  0.5002622593545637  0.0098789027953547
  0.3031770357106436 -0.0002678201615002  0.0813264141737202
  0.6956212948369194  0.0035149419275924  0.9167246128655137
  0.8029911031315159  0.5038304790750722  0.0812916086749051
  0.1956105337135834  0.4967966922411251  0.9200501271315037
  0.0337539016853904  0.9997415005212549  0.0994270636841601
  0.9658719555686124  0.0001540207866785  0.9024640175970811
  0.5344559644853123  0.4985400230190582  0.0980070541144123
  0.4667471843631497  0.4962457776889855  0.9011550896839009
  0.4499620495587537  0.0027397874597969  0.1556731876234502
  0.5492207595236474  0.0154229030732062  0.8434408962232627
  0.9495141672751158  0.5017315638814338  0.1559820990873178
  0.0495440086967131  0.5050941853153462  0.8450521354919632
  0.1803945284532846 -0.0005291698889562  0.1784883775319402
  0.8206097530532044  0.0031709449747207  0.8233564613326178
  0.6799192435369609  0.5038873309611160  0.1765054941090824
  0.3206230611684474  0.4837557325757652  0.8284638991133432
  0.0489528707320159  0.0006970392477028  0.2704110671166596
  0.9502043620291911  0.0016602350235579  0.7304349111858022
  0.5502543223877936  0.5020824551726034  0.2692293198362484
  0.4461704221436294  0.5170502785461863  0.7225888297766250
  0.3259854379938142  1.0006954265024399  0.2492034965763699
  0.6755093670046989  0.9990098218854527  0.7495935165515384
  0.8253994291324848  0.4989904122007667  0.2494778241170172
  0.1744894567890917  0.4986498753757231  0.7510071804445470
  0.4771783313008679  1.0020504088222457  0.3262359117465468
  0.5261244460478398  1.0065305035430796  0.6744419652800614
  0.9770172254119387  0.4994834295254039  0.3280199117865322
  0.0241036476454021  0.4963585010260115  0.6747325124319237
  0.2062585389952809  0.0144847747041491  0.3495288365506346
  0.7928444647381698  0.0019505756547882  0.6511728889095567
  0.7076725176226788  0.5019928773624792  0.3486225171347130
  0.2927222398693529  0.4990610407095613  0.6552586457729226
  0.3515629152349897  0.0143982635259933  0.4212235719167719
  0.6478445407026369  1.0008002834759864  0.5733253432347684
  0.8524643801030196  0.4999905226185715  0.4249176839998553
  0.1449522928588986  0.4941114542254871  0.5731655938388767
  0.2229300472970542  0.0046184045586155  0.5224031359285276
  0.7789996476280372  0.0031621883745954  0.4811041937989552
  0.7221643734580130  0.5031612539155388  0.5183805886688564
  0.2828242739707547  0.5234688661351434  0.4858639200339984
  0.3785947502765740  0.0299259803514418  0.5947327141094918
  0.6224859447841218  0.0026183742553582  0.4034722705583115
  0.8785098321677725  0.5028358020718374  0.5959225030678759
  0.1226417925556579  0.4998738671656924  0.4040431427354019
  0.0904569200331178  0.9893371416012232  0.6319493522598586
  0.9102144336990288  0.9923518690587789  0.3683707707408315
  0.5908813996674060  0.4939878208463006  0.6304021691294726
  0.4107082904368178  0.4960632922221035  0.3681492154148504
  0.3930390678791833 -0.0046153875411126  0.7690536802168326
  0.6060649514766275  0.0011215110170900  0.2312712330818191
  0.8943511708003266  0.5009588696828677  0.7684511544172581
  0.1063512785996377  0.5016903920668432  0.2321687372803992
  0.2744849565170993 -0.0020934323877635  0.8978010189356930
  0.7239128320409030  0.0047426006972138  0.1020691226741882
  0.7756360727799373  0.5032221733454831  0.8968292015213678
  0.2240670758131406  0.5022299099888978  0.1040737790109417
  0.4288082922274037 -0.0010876821112578  0.9867821257567616
  0.5714782660312557  0.0017339215353626  0.0129320231272778
  0.9281578121247502  0.5035423760271449  0.9869017787567486
  0.0708696061472713  0.5040244124786850  0.0143294210754857
 
  0.00000000E+00  0.00000000E+00  0.00000000E+00
  0.00000000E+00  0.00000000E+00  0.00000000E+00
  0.00000000E+00  0.00000000E+00  0.00000000E+00
  0.00000000E+00  0.00000000E+00  0.00000000E+00
  0.00000000E+00  0.00000000E+00  0.00000000E+00
  0.00000000E+00  0.00000000E+00  0.00000000E+00
  0.00000000E+00  0.00000000E+00  0.00000000E+00
  0.00000000E+00  0.00000000E+00  0.00000000E+00
  0.00000000E+00  0.00000000E+00  0.00000000E+00
  0.00000000E+00  0.00000000E+00  0.00000000E+00
  0.00000000E+00  0.00000000E+00  0.00000000E+00
  0.00000000E+00  0.00000000E+00  0.00000000E+00
  0.00000000E+00  0.00000000E+00  0.00000000E+00
  0.00000000E+00  0.00000000E+00  0.00000000E+00
  0.00000000E+00  0.00000000E+00  0.00000000E+00
  0.00000000E+00  0.00000000E+00  0.00000000E+00
  0.00000000E+00  0.00000000E+00  0.00000000E+00
  0.00000000E+00  0.00000000E+00  0.00000000E+00
  0.00000000E+00  0.00000000E+00  0.00000000E+00
  0.00000000E+00  0.00000000E+00  0.00000000E+00
  0.00000000E+00  0.00000000E+00  0.00000000E+00
  0.00000000E+00  0.00000000E+00  0.00000000E+00
  0.00000000E+00  0.00000000E+00  0.00000000E+00
  0.00000000E+00  0.00000000E+00  0.00000000E+00
  0.00000000E+00  0.00000000E+00  0.00000000E+00
  0.00000000E+00  0.00000000E+00  0.00000000E+00
  0.00000000E+00  0.00000000E+00  0.00000000E+00
  0.00000000E+00  0.00000000E+00  0.00000000E+00
  0.00000000E+00  0.00000000E+00  0.00000000E+00
  0.00000000E+00  0.00000000E+00  0.00000000E+00
  0.00000000E+00  0.00000000E+00  0.00000000E+00
  0.00000000E+00  0.00000000E+00  0.00000000E+00
  0.00000000E+00  0.00000000E+00  0.00000000E+00
  0.00000000E+00  0.00000000E+00  0.00000000E+00
  0.00000000E+00  0.00000000E+00  0.00000000E+00
  0.00000000E+00  0.00000000E+00  0.00000000E+00
  0.00000000E+00  0.00000000E+00  0.00000000E+00
  0.00000000E+00  0.00000000E+00  0.00000000E+00
  0.00000000E+00  0.00000000E+00  0.00000000E+00
  0.00000000E+00  0.00000000E+00  0.00000000E+00
  0.00000000E+00  0.00000000E+00  0.00000000E+00
  0.00000000E+00  0.00000000E+00  0.00000000E+00
  0.00000000E+00  0.00000000E+00  0.00000000E+00
  0.00000000E+00  0.00000000E+00  0.00000000E+00
  0.00000000E+00  0.00000000E+00  0.00000000E+00
  0.00000000E+00  0.00000000E+00  0.00000000E+00
  0.00000000E+00  0.00000000E+00  0.00000000E+00
  0.00000000E+00  0.00000000E+00  0.00000000E+00
  0.00000000E+00  0.00000000E+00  0.00000000E+00
  0.00000000E+00  0.00000000E+00  0.00000000E+00
  0.00000000E+00  0.00000000E+00  0.00000000E+00
  0.00000000E+00  0.00000000E+00  0.00000000E+00
  0.00000000E+00  0.00000000E+00  0.00000000E+00
  0.00000000E+00  0.00000000E+00  0.00000000E+00
  0.00000000E+00  0.00000000E+00  0.00000000E+00
  0.00000000E+00  0.00000000E+00  0.00000000E+00
  0.00000000E+00  0.00000000E+00  0.00000000E+00
  0.00000000E+00  0.00000000E+00  0.00000000E+00
  0.00000000E+00  0.00000000E+00  0.00000000E+00
  0.00000000E+00  0.00000000E+00  0.00000000E+00
  0.00000000E+00  0.00000000E+00  0.00000000E+00
  0.00000000E+00  0.00000000E+00  0.00000000E+00
  0.00000000E+00  0.00000000E+00  0.00000000E+00
  0.00000000E+00  0.00000000E+00  0.00000000E+00
  0.00000000E+00  0.00000000E+00  0.00000000E+00
  0.00000000E+00  0.00000000E+00  0.00000000E+00
  0.00000000E+00  0.00000000E+00  0.00000000E+00
  0.00000000E+00  0.00000000E+00  0.00000000E+00
  0.00000000E+00  0.00000000E+00  0.00000000E+00
  0.00000000E+00  0.00000000E+00  0.00000000E+00
  0.00000000E+00  0.00000000E+00  0.00000000E+00
  0.00000000E+00  0.00000000E+00  0.00000000E+00
  0.00000000E+00  0.00000000E+00  0.00000000E+00
  0.00000000E+00  0.00000000E+00  0.00000000E+00
  0.00000000E+00  0.00000000E+00  0.00000000E+00
  0.00000000E+00  0.00000000E+00  0.00000000E+00
  0.00000000E+00  0.00000000E+00  0.00000000E+00
  0.00000000E+00  0.00000000E+00  0.00000000E+00
  0.00000000E+00  0.00000000E+00  0.00000000E+00
  0.00000000E+00  0.00000000E+00  0.00000000E+00
  0.00000000E+00  0.00000000E+00  0.00000000E+00
  0.00000000E+00  0.00000000E+00  0.00000000E+00
  0.00000000E+00  0.00000000E+00  0.00000000E+00
  0.00000000E+00  0.00000000E+00  0.00000000E+00
  0.00000000E+00  0.00000000E+00  0.00000000E+00
  0.00000000E+00  0.00000000E+00  0.00000000E+00
  0.00000000E+00  0.00000000E+00  0.00000000E+00
  0.00000000E+00  0.00000000E+00  0.00000000E+00
  0.00000000E+00  0.00000000E+00  0.00000000E+00
  0.00000000E+00  0.00000000E+00  0.00000000E+00
  0.00000000E+00  0.00000000E+00  0.00000000E+00
  0.00000000E+00  0.00000000E+00  0.00000000E+00
  0.00000000E+00  0.00000000E+00  0.00000000E+00
