Mo  S Li                                
   1.00000000000000     
    27.1203981867000010    0.4023603500000000   -2.4028070269000001
     0.3017446571000000   23.3624652224999991   -0.4376913698000000
    -7.1295779436000002   -0.2894054832000000   10.3645110117999995
   Mo   S    Li
    48   208     1
Direct
  0.5362912402787632  0.0879488694956443  0.6732014307151465
  0.8642814321767747  0.4224994753008732  0.6564869163428627
  0.7606789442637885  0.5618651516485461  0.0117927325369715
  0.8957267948121590  0.7982520998187982  0.8324718231018220
  0.2790817736254251  0.4615898519817663  0.1638508235238104
  0.5347741564078100  0.5313858504906284  0.3754075825158853
  0.6453196059899279  0.9127478423443547  0.7401136431591989
  0.0608925001629206  0.9768696485020300  0.7389634356744863
  0.7624983787173114  0.2458018121712991  0.1365752963450210
  0.9733003728228092  0.9073286196045485  0.7344246068202718
  0.3657245056283171  0.9637970613512448  0.0841484368616864
  0.7029650010712780  0.5070914979413287  0.1157267602268642
  0.9070243044458703  0.6850509792372187  0.7390419303341724
  0.8768948877137400  0.2636774634883714  0.1898184896939103
  0.1846699652207032  0.5418521283189671  0.5549238415748672
  0.4176590387914734  0.9195529415675738  0.9609858837365691
  0.8847591387818330  0.9324021393855826  0.7664939791992830
  0.6266542260174471  0.0712307093602641  0.2302499978422849
  0.7279739954944098  0.3845332524924065  0.5671846156759314
  0.5863703337791507  0.4902305036974276  0.2248096111324100
  0.3504242150253403  0.0869697432270596  0.3163594024060006
  0.8486830627689907  0.8533850175813887  0.5368638919030824
  0.2109534619973985  0.6836237431983467  0.4953127201598401
  0.4901690170782411  0.1044254917233612  0.0731031822197898
  0.6024552675971571  0.0816182429000679  0.5696250919880969
  0.4812620875088264  0.1939177921334081  0.9190280578050585
  0.6263713397616376  0.1747866009735724  0.1076127167326701
  0.2568272396903106  0.3521694281210365  0.0756673244357078
  0.8351368610538928  0.9678538067549659  0.0361917177609718
  0.6060154047586671  0.4355193514908133  0.4435176941191898
  0.3390929513774585  0.7768625952798265  0.2536314063842695
  0.5276014450004992  0.9855238547576393  0.1741858185609631
  0.0183067176316151  0.1933998402819734  0.9481292248767529
  0.8694282579695695  0.6772989738110733  0.4752999518915582
  0.2107326254619044  0.7497452491507389  0.0444171288419625
  0.5200029347499707  0.9918393606109714  0.5198345231927897
  0.7202579630266756  0.0272941001872503  0.8127978614012398
  0.7384356521054711  0.1239601408992942  0.3363170975125723
  0.5164920336888255  0.8736898754984078  0.2325770127769013
  0.1891124777191710  0.4663067872464285  0.7208821722551458
  0.3454802856114138  0.6689527853645029  0.6826578610582835
  0.1042672816699680  0.1767123348429948  0.8923534894310738
  0.2180528137614306  0.2226730440685728  0.9523789817841682
  0.3770962700112726  0.1813427028615761  0.9008552431794128
  0.2801380190263945  0.7648601597186945  0.6968323148099852
  0.2087333593146688  0.2470382216576124  0.3121059299585620
  0.8661040089857893  0.5798077234558453 -0.0001476767883273
  0.2529214180188591  0.1690475833238073  0.2062293757814242
  0.2245038501779746  0.8837328658678567  0.2522543221293172
  0.4149016218123784  0.5841253875437109  0.6966370684273149
  0.0494510994674797  0.7791438867617529  0.3301882251643871
  0.4899213668873762  0.0885054453211584  0.4412271945119814
  0.3104970712154070  0.9290752138889112  0.1577587380724653
  0.3649905520404670  0.1863417932432763  0.3648252057390137
  0.0371113804731115  0.4695826044391220  0.6458474470652529
  0.6704604039873702  0.0842581892004506  0.1120756158690291
  0.0983129018654882  0.5032045248652559  0.5066465289121904
  0.6907111442469694  0.6335846929433913  0.8415174623898531
  0.3445262725536712  0.0570185474321397  0.1353800764225385
  0.6029883504609428  0.8064742148075484  0.3102959383037023
  0.0810495854120440  0.2746320051907223  0.9536270059750671
  0.8362762875425508  0.7704701381072688  0.3625861144122915
  0.9610669433102657  0.5442550788243165  0.0378834619693596
  0.7743946309866353  0.4729609381621141  0.6076665398450202
  0.1772733470807213  0.0549920318840002  0.4148705288336333
  0.9825913469649666  0.6046844143661925  0.8148895506074665
  0.9485688287823506  0.5243511824972178  0.1762993707303424
  0.1400451582749232  0.7352913379734908  0.2865346112599709
  0.6759194540783896  0.2239653756104353  0.6833128750549869
  0.0157649564529039  0.0611521127274059  0.4056605486088036
  0.2230645563226817  0.4003004757384032  0.2009443742969109
  0.1567563288522499  0.2240905748245241  0.4021339821021360
  0.6938389424963083  0.4274430191626766  0.6899843875171700
  0.2486507188089123  0.1616704429151686  0.8484165234951530
  0.5554825940300055  0.7355398022539792  0.9145584195987021
  0.6653205939920047  0.2006744952545944  0.9809974881754133
  0.7383617712794122  0.3387798387598664  0.0763632102157724
  0.8657293505980672  0.2408616028642866  0.3479852319387124
  0.7895857799024723  0.2078371707379200  0.0093964450304934
  0.1155963268006721  0.6177393332775097  0.3930998668029914
  0.4033634301922053  0.6240372011476994  0.3050333302771681
  0.6088001846781455  0.9356953370286250  0.3754612873938728
  0.1267564697413494  0.5032363122840743  0.7881377710078472
  0.6012650598099414  0.4631301344765649  0.9530179070841475
  0.2723624416827378  0.4711017196010066  0.4566730838456372
  0.2585767207612035  0.3929704064276050  0.7083676776415222
  0.5626544768896762  0.6438182217261949  0.8758682051885406
  0.1681952590208131  0.6606978242871959  0.2509147607002393
  0.6426328833941525  0.5280628699348660  0.4618261690695578
  0.2210100187602827  0.0230271875401735  0.6073513532983335
  0.8043191513238858  0.4680454039094680  0.2690078133328308
  0.4032299876112995  0.6572006173898971  0.5996415294246934
  0.2477119397502804  0.7957002809173283  0.2624951690191869
  0.8747110622694708  0.9542637718928293  0.5730033643767974
  0.8962242130618528  0.4912570002616524  0.6097123549796254
  0.0150960347352108  0.2588895376696557  0.0906920844187415
  0.4801938934603666  0.9610885446446925  0.2853100225275362
  0.4338650497232946  0.7108449809058213  0.3521973386178713
  0.6476496816348807  0.0920439797393437  0.8055484821552880
  0.0541286583593217  0.3836816755429271  0.6451894116431053
  0.9887731322588101  0.1873694111392301  0.7216631253634467
  0.9877601968226531  0.0613718451759140  0.6309581716728881
  0.1286801399359798  0.3777276222352366  0.6416467149909919
  0.3159034437390303  0.2790629757557662  0.0490852556627034
  0.4179212273723246  0.0179938043659669  0.0142808695321112
  0.2571109386164062  0.5591772622743010  0.0822680154845245
  0.4312373823393184  0.8559620912539456  0.6209848519902716
  0.6348094536917759  0.9134877162637817  0.9108936984416337
  0.5669031044877031  0.6163493119661669  0.5091023816916551
  0.4821832024038100  0.3306730118076635  0.7262448171420631
  0.7199092887584042  0.0844994721755582  0.6757387236037687
  0.7800943675874431  0.3767640147285073  0.4429460391703433
  0.8168475909248715  0.9188274866651164  0.1485455002916167
  0.3586934377370207  0.8717754382434907  0.6467879048696448
  0.6898269733026575  0.4854030099812372  0.9157899547928622
  0.0532910705736555  0.1447861414200519  0.4514024243392127
  0.7990639710508008  0.0565282153551398  0.0398141948952837
  0.5947030046991898  0.7790544738899307  0.5540890612207612
  0.0546372988794326  0.6478962017446755  0.4340388421832020
  0.1703582503409601  0.4224013674476515  0.9957641057478847
  0.2559474820362101  0.0678568227249123  0.2556724699756956
  0.8286807863555127  0.3513175988678576  0.1289739742550104
  0.2368763732444719  0.2725183819654268  0.1661655783962713
  0.4004039217898313  0.9973205223022411  0.4408684880051618
  0.8424230230128671  0.1368528571567733  0.5621506185823050
  0.9041842873219836  0.2069049815709361  0.8570223350497129
  0.0998729475765596  0.5309839405078228  0.0597893465564671
  0.2655222035118685  0.5478952574880425  0.2562385372018365
  0.2581829175589179  0.3268337061139501  0.4652927438383936
  0.8301817812207766  0.6204171424496479  0.5491765233246027
  0.8664805623805497  0.3362173227324134  0.5512171400217092
  0.9860838592236453  0.9209124025846603  0.5625764180936889
  0.6628138611261418  0.1651416799385174  0.3489573428008291
  0.4951452568557480  0.2701771561762392  0.4925295029357271
  0.5437965621420341  0.9952392091518709  0.7361636183732978
  0.5674417867834916  0.0715544851230248  0.3157126470951605
  0.5351074687310584  0.0304635405463962  0.0157334111363479
  0.0250231640332618  0.8347003843556763  0.4242998620079251
  0.2238032898590806  0.8499549334618216  0.5869923967442583
  0.5779443519974224  0.3049448442452639  0.8840258412000933
  0.9458677834243560  0.9393558723159774  0.2035073191110302
  0.4887510764963727  0.5851663704794920  0.4746655353616626
  0.5463101762610144  0.4537817023947330  0.0088610975604179
  0.2422017030148924  0.8444464195301165  0.7696499734669956
  0.7308844736601595  0.2225714712863432  0.2719258695268373
  0.2726824723296674  0.4350616158326869  0.9698644254538856
  0.6852428471965374  0.9773113295003499  0.2960512986620806
  0.3930898327279651  0.7444175688740439  0.1691981694144200
  0.9654864614978168  0.3965688553541686  0.8780938342128831
  0.5166263594718025  0.7706876584810328  0.1922173063575036
  0.3487457505715483  0.6941247195021925  0.8768917048571760
  0.2697736801529669  0.2027282519360750  0.7388977592777501
  0.1590970196802216  0.9387108173595455  0.8156100777044213
  0.5674634426086838  0.2718406673878167  0.0177267529135217
  0.1065140928608005  0.7814880115200595  0.9454820068048447
  0.0396292002673574  0.9887381747202686  0.8996424169179309
  0.5298678729814777  0.4534908376154824  0.4744381358108510
  0.7472722735994839  0.2254989135827817  0.6697263692430059
  0.2803646269592640  0.5051712973710067  0.7665472987879010
  0.8374476034251077  0.0935411665144861  0.4126286883517847
  0.2696267285026244  0.5977050558218622  0.5733018925646062
  0.5150245230424186  0.5963665442475922  0.9067932233949183
  0.5752974587309106  0.7645111909051309  0.7960292024473883
  0.0136227640451772  0.1041447878991938  0.9804052489333553
  0.3555956968659874  0.3885577596521860  0.2547872219293690
  0.5159811284693689  0.8280797059389459  0.4148297877666594
  0.7997104873186255  0.8744950964199050  0.6415973507035885
  0.6424563635262429  0.3951855844636504  0.3264375768667881
  0.1152637818434814  0.7449250705651488  0.8052153126212248
  0.3807578032271593  0.2454583759484003  0.7423649214947224
  0.4850957164870552  0.3479770953839995  0.5752555667650823
  0.2026076971812839  0.3492745773470491  0.5235953458924428
  0.7429233811555049  0.9598786211733344  0.2410709203942925
  0.5387656371871248  0.1408140192182651  0.8600740154242525
  0.7536461733445350  0.9352801581919848  0.8099475270147557
  0.3702637688470904  0.8716779482965313  0.3108695029359813
  0.9735688350362881  0.8735642588599957  0.9194545884311075
  0.9761646357569995  0.7329953061095389  0.9597468021007686
  0.7567959264292501  0.6529033974162193  0.6886468828985227
  0.1072584192326198  0.2873438767671882  0.2606296201931438
  0.9251064532327452  0.1799366853308522  0.1489950623455184
  0.9469897810014738  0.8164913196331109  0.6165480236001083
  0.5086113221869838  0.5676058642802874  0.1594956824749440
  0.9851247035476818  0.2749351966480768  0.7768957767088355
  0.1558988975600982  0.6672585806677187  0.8917982950475826
  0.4146329032492420  0.2382927779066257  0.3145778393225869
  0.8456171103886032  0.5119547040530563  0.2070735369488783
  0.1376656275013569  0.1759780430614563  0.1225504080015297
  0.9354148252846421  0.8628854304075497  0.2697595237293825
  0.4240274950308209  0.4295649095565689  0.1099958532647016
  0.8320882368846676  0.3492570724686051  0.7780030975571767
  0.2934145906951915  0.7445320185239548  0.5354708477525888
  0.9014208054083008  0.9866989487279459  0.9625337631401478
  0.1329096811910458  0.8812573820491264  0.1899062922575374
  0.2048037383341014  0.1270301908869014  0.9860086784993604
  0.0480416711352201  0.5982813927581153  0.0216285202627665
  0.1169470256019351  0.9726249262626768  0.6287509918567660
  0.3846348738279771  0.8263002014492029  0.8150942708394174
  0.1905523416412593  0.4799220316615390  0.4171750784723873
  0.2312474433192039  0.3060640275764037  0.8648150180445547
  0.8288628531571969  0.7605438417225834  0.6102857312910462
  0.0963668143733890  0.0041718276774424  0.2761703198025033
  0.4185034173208498  0.0700810354262640  0.5616488802030631
  0.6670593548712483  0.8380254618345676  0.6416935643625452
  0.1965007013542268  0.7141274390515422  0.6490092278280050
  0.5968480901023131  0.1810002898920782  0.5183083065235206
  0.6879353666043261  0.5076278620320408  0.2755777753539379
  0.7278962606536423  0.6909890886445496  0.7889069593702031
  0.5226116366253797  0.1873988514494530  0.7016720438948099
  0.4116898090267548  0.1131213216525279  0.8232487695389090
  0.8952636091264438  0.4202412673200402  0.8865898237493484
  0.5921678231651263  0.5906080234582951  0.1931943996094291
  0.5456207745792283  0.1929715203725743  0.1543705406095782
  0.7023068273801137  0.8555672652607297  0.9512180303919748
  0.8892667282435603  0.1504850515540601  0.9514519762600729
  0.7339928280731541  0.2810769862144702  0.5299053564500851
  0.8532917297442316  0.7986034629698995  0.9288174041735245
  0.4247121551578658  0.1557868460204306  0.1173499274268187
  0.3562708563588645  0.5118047690219217  0.3820251103006958
  0.4004088646274220  0.8639096140895647  0.0849243738408837
  0.7177892606509467  0.6008284908548868  0.1166311125431528
  0.1234249090556414  0.9204964450481837  0.3257653089995122
  0.5330966146710414  0.8897535674699205  0.5732768937071036
  0.6191548685353272  0.9808123995396251  0.5740862963985948
  0.2832437059252878  0.1814221394811664  0.4419187907838700
  0.6728992153666200  0.7663744268516917  0.9163396116578030
  0.6508551327863081  0.3508670110050769  0.5931017419872558
  0.9620910916964146  0.7221724732086943  0.6737343054380647
  0.9993620057781869  0.7037843441730289  0.2803218949086079
  0.3011991977917122  0.9405492010238934  0.8600565740511819
  0.2869031293193669  0.6889579133368373  0.2188557477204129
  0.3885354606105479  0.9511034848994286  0.7401000499515563
  0.9142104622591746  0.6200673467234461  0.4230046776854420
  0.7284262992724300  0.0436642959044827  0.4488120864660476
  0.4259523461059034  0.2707747384939498  0.9454305162717446
  0.8649085539958143  0.0280602797954058  0.7814745337138888
  0.9464091951506134  0.0725437250399637  0.4171635766490910
  0.7696546096607320  0.8757637840434342  0.3066056994180349
  0.1738451145301018  0.0471145248283997  0.6794202614296884
  0.0830748496386249  0.0858782890510279  0.7639814684745979
  0.5250022532043226  0.8976330366554880  0.0612023678629391
  0.4345597235884250  0.6968508165271576  0.9139241214583010
  0.2331824104986080  0.5663470048445917  0.7978224463632384
  0.4255929421616280  0.5139889130444930  0.1670430706836033
  0.4115567755601211  0.7806174047821876  0.5211267714064025
  0.8554661505241837  0.6369491267875794  0.8347277028283380
  0.1131069899683521  0.2371992038392756  0.7657614300449066
  0.0898054276013108  0.9171862048656243  0.9206126230800098
  0.8446309470704633  0.6383221327707608  0.1093346540148113
  0.0263100575958724  0.1700888195327786  0.2704412828298271
  0.2639116420240591  0.8098680250658801  0.0201278409153773
  0.9504485205301514  0.3309943605190683  0.2159039401124182
  0.9864576953721993  0.2849323311282950  0.3837333775984595
  0.7670026744141901  0.7095762846860846  0.2820217196557041
  0.5172520653149975  0.4087568543241735  0.1959772729588852
  0.7837648753877210  0.5228688549198960  0.8626135366948304
  0.2818874627494315  0.6538420640181344  0.3840000111264011
 
  0.00000000E+00  0.00000000E+00  0.00000000E+00
  0.00000000E+00  0.00000000E+00  0.00000000E+00
  0.00000000E+00  0.00000000E+00  0.00000000E+00
  0.00000000E+00  0.00000000E+00  0.00000000E+00
  0.00000000E+00  0.00000000E+00  0.00000000E+00
  0.00000000E+00  0.00000000E+00  0.00000000E+00
  0.00000000E+00  0.00000000E+00  0.00000000E+00
  0.00000000E+00  0.00000000E+00  0.00000000E+00
  0.00000000E+00  0.00000000E+00  0.00000000E+00
  0.00000000E+00  0.00000000E+00  0.00000000E+00
  0.00000000E+00  0.00000000E+00  0.00000000E+00
  0.00000000E+00  0.00000000E+00  0.00000000E+00
  0.00000000E+00  0.00000000E+00  0.00000000E+00
  0.00000000E+00  0.00000000E+00  0.00000000E+00
  0.00000000E+00  0.00000000E+00  0.00000000E+00
  0.00000000E+00  0.00000000E+00  0.00000000E+00
  0.00000000E+00  0.00000000E+00  0.00000000E+00
  0.00000000E+00  0.00000000E+00  0.00000000E+00
  0.00000000E+00  0.00000000E+00  0.00000000E+00
  0.00000000E+00  0.00000000E+00  0.00000000E+00
  0.00000000E+00  0.00000000E+00  0.00000000E+00
  0.00000000E+00  0.00000000E+00  0.00000000E+00
  0.00000000E+00  0.00000000E+00  0.00000000E+00
  0.00000000E+00  0.00000000E+00  0.00000000E+00
  0.00000000E+00  0.00000000E+00  0.00000000E+00
  0.00000000E+00  0.00000000E+00  0.00000000E+00
  0.00000000E+00  0.00000000E+00  0.00000000E+00
  0.00000000E+00  0.00000000E+00  0.00000000E+00
  0.00000000E+00  0.00000000E+00  0.00000000E+00
  0.00000000E+00  0.00000000E+00  0.00000000E+00
  0.00000000E+00  0.00000000E+00  0.00000000E+00
  0.00000000E+00  0.00000000E+00  0.00000000E+00
  0.00000000E+00  0.00000000E+00  0.00000000E+00
  0.00000000E+00  0.00000000E+00  0.00000000E+00
  0.00000000E+00  0.00000000E+00  0.00000000E+00
  0.00000000E+00  0.00000000E+00  0.00000000E+00
  0.00000000E+00  0.00000000E+00  0.00000000E+00
  0.00000000E+00  0.00000000E+00  0.00000000E+00
  0.00000000E+00  0.00000000E+00  0.00000000E+00
  0.00000000E+00  0.00000000E+00  0.00000000E+00
  0.00000000E+00  0.00000000E+00  0.00000000E+00
  0.00000000E+00  0.00000000E+00  0.00000000E+00
  0.00000000E+00  0.00000000E+00  0.00000000E+00
  0.00000000E+00  0.00000000E+00  0.00000000E+00
  0.00000000E+00  0.00000000E+00  0.00000000E+00
  0.00000000E+00  0.00000000E+00  0.00000000E+00
  0.00000000E+00  0.00000000E+00  0.00000000E+00
  0.00000000E+00  0.00000000E+00  0.00000000E+00
  0.00000000E+00  0.00000000E+00  0.00000000E+00
  0.00000000E+00  0.00000000E+00  0.00000000E+00
  0.00000000E+00  0.00000000E+00  0.00000000E+00
  0.00000000E+00  0.00000000E+00  0.00000000E+00
  0.00000000E+00  0.00000000E+00  0.00000000E+00
  0.00000000E+00  0.00000000E+00  0.00000000E+00
  0.00000000E+00  0.00000000E+00  0.00000000E+00
  0.00000000E+00  0.00000000E+00  0.00000000E+00
  0.00000000E+00  0.00000000E+00  0.00000000E+00
  0.00000000E+00  0.00000000E+00  0.00000000E+00
  0.00000000E+00  0.00000000E+00  0.00000000E+00
  0.00000000E+00  0.00000000E+00  0.00000000E+00
  0.00000000E+00  0.00000000E+00  0.00000000E+00
  0.00000000E+00  0.00000000E+00  0.00000000E+00
  0.00000000E+00  0.00000000E+00  0.00000000E+00
  0.00000000E+00  0.00000000E+00  0.00000000E+00
  0.00000000E+00  0.00000000E+00  0.00000000E+00
  0.00000000E+00  0.00000000E+00  0.00000000E+00
  0.00000000E+00  0.00000000E+00  0.00000000E+00
  0.00000000E+00  0.00000000E+00  0.00000000E+00
  0.00000000E+00  0.00000000E+00  0.00000000E+00
  0.00000000E+00  0.00000000E+00  0.00000000E+00
  0.00000000E+00  0.00000000E+00  0.00000000E+00
  0.00000000E+00  0.00000000E+00  0.00000000E+00
  0.00000000E+00  0.00000000E+00  0.00000000E+00
  0.00000000E+00  0.00000000E+00  0.00000000E+00
  0.00000000E+00  0.00000000E+00  0.00000000E+00
  0.00000000E+00  0.00000000E+00  0.00000000E+00
  0.00000000E+00  0.00000000E+00  0.00000000E+00
  0.00000000E+00  0.00000000E+00  0.00000000E+00
  0.00000000E+00  0.00000000E+00  0.00000000E+00
  0.00000000E+00  0.00000000E+00  0.00000000E+00
  0.00000000E+00  0.00000000E+00  0.00000000E+00
  0.00000000E+00  0.00000000E+00  0.00000000E+00
  0.00000000E+00  0.00000000E+00  0.00000000E+00
  0.00000000E+00  0.00000000E+00  0.00000000E+00
  0.00000000E+00  0.00000000E+00  0.00000000E+00
  0.00000000E+00  0.00000000E+00  0.00000000E+00
  0.00000000E+00  0.00000000E+00  0.00000000E+00
  0.00000000E+00  0.00000000E+00  0.00000000E+00
  0.00000000E+00  0.00000000E+00  0.00000000E+00
  0.00000000E+00  0.00000000E+00  0.00000000E+00
  0.00000000E+00  0.00000000E+00  0.00000000E+00
  0.00000000E+00  0.00000000E+00  0.00000000E+00
  0.00000000E+00  0.00000000E+00  0.00000000E+00
  0.00000000E+00  0.00000000E+00  0.00000000E+00
  0.00000000E+00  0.00000000E+00  0.00000000E+00
  0.00000000E+00  0.00000000E+00  0.00000000E+00
  0.00000000E+00  0.00000000E+00  0.00000000E+00
  0.00000000E+00  0.00000000E+00  0.00000000E+00
  0.00000000E+00  0.00000000E+00  0.00000000E+00
  0.00000000E+00  0.00000000E+00  0.00000000E+00
  0.00000000E+00  0.00000000E+00  0.00000000E+00
  0.00000000E+00  0.00000000E+00  0.00000000E+00
  0.00000000E+00  0.00000000E+00  0.00000000E+00
  0.00000000E+00  0.00000000E+00  0.00000000E+00
  0.00000000E+00  0.00000000E+00  0.00000000E+00
  0.00000000E+00  0.00000000E+00  0.00000000E+00
  0.00000000E+00  0.00000000E+00  0.00000000E+00
  0.00000000E+00  0.00000000E+00  0.00000000E+00
  0.00000000E+00  0.00000000E+00  0.00000000E+00
  0.00000000E+00  0.00000000E+00  0.00000000E+00
  0.00000000E+00  0.00000000E+00  0.00000000E+00
  0.00000000E+00  0.00000000E+00  0.00000000E+00
  0.00000000E+00  0.00000000E+00  0.00000000E+00
  0.00000000E+00  0.00000000E+00  0.00000000E+00
  0.00000000E+00  0.00000000E+00  0.00000000E+00
  0.00000000E+00  0.00000000E+00  0.00000000E+00
  0.00000000E+00  0.00000000E+00  0.00000000E+00
  0.00000000E+00  0.00000000E+00  0.00000000E+00
  0.00000000E+00  0.00000000E+00  0.00000000E+00
  0.00000000E+00  0.00000000E+00  0.00000000E+00
  0.00000000E+00  0.00000000E+00  0.00000000E+00
  0.00000000E+00  0.00000000E+00  0.00000000E+00
  0.00000000E+00  0.00000000E+00  0.00000000E+00
  0.00000000E+00  0.00000000E+00  0.00000000E+00
  0.00000000E+00  0.00000000E+00  0.00000000E+00
  0.00000000E+00  0.00000000E+00  0.00000000E+00
  0.00000000E+00  0.00000000E+00  0.00000000E+00
  0.00000000E+00  0.00000000E+00  0.00000000E+00
  0.00000000E+00  0.00000000E+00  0.00000000E+00
  0.00000000E+00  0.00000000E+00  0.00000000E+00
  0.00000000E+00  0.00000000E+00  0.00000000E+00
  0.00000000E+00  0.00000000E+00  0.00000000E+00
  0.00000000E+00  0.00000000E+00  0.00000000E+00
  0.00000000E+00  0.00000000E+00  0.00000000E+00
  0.00000000E+00  0.00000000E+00  0.00000000E+00
  0.00000000E+00  0.00000000E+00  0.00000000E+00
  0.00000000E+00  0.00000000E+00  0.00000000E+00
  0.00000000E+00  0.00000000E+00  0.00000000E+00
  0.00000000E+00  0.00000000E+00  0.00000000E+00
  0.00000000E+00  0.00000000E+00  0.00000000E+00
  0.00000000E+00  0.00000000E+00  0.00000000E+00
  0.00000000E+00  0.00000000E+00  0.00000000E+00
  0.00000000E+00  0.00000000E+00  0.00000000E+00
  0.00000000E+00  0.00000000E+00  0.00000000E+00
  0.00000000E+00  0.00000000E+00  0.00000000E+00
  0.00000000E+00  0.00000000E+00  0.00000000E+00
  0.00000000E+00  0.00000000E+00  0.00000000E+00
  0.00000000E+00  0.00000000E+00  0.00000000E+00
  0.00000000E+00  0.00000000E+00  0.00000000E+00
  0.00000000E+00  0.00000000E+00  0.00000000E+00
  0.00000000E+00  0.00000000E+00  0.00000000E+00
  0.00000000E+00  0.00000000E+00  0.00000000E+00
  0.00000000E+00  0.00000000E+00  0.00000000E+00
  0.00000000E+00  0.00000000E+00  0.00000000E+00
  0.00000000E+00  0.00000000E+00  0.00000000E+00
  0.00000000E+00  0.00000000E+00  0.00000000E+00
  0.00000000E+00  0.00000000E+00  0.00000000E+00
  0.00000000E+00  0.00000000E+00  0.00000000E+00
  0.00000000E+00  0.00000000E+00  0.00000000E+00
  0.00000000E+00  0.00000000E+00  0.00000000E+00
  0.00000000E+00  0.00000000E+00  0.00000000E+00
  0.00000000E+00  0.00000000E+00  0.00000000E+00
  0.00000000E+00  0.00000000E+00  0.00000000E+00
  0.00000000E+00  0.00000000E+00  0.00000000E+00
  0.00000000E+00  0.00000000E+00  0.00000000E+00
  0.00000000E+00  0.00000000E+00  0.00000000E+00
  0.00000000E+00  0.00000000E+00  0.00000000E+00
  0.00000000E+00  0.00000000E+00  0.00000000E+00
  0.00000000E+00  0.00000000E+00  0.00000000E+00
  0.00000000E+00  0.00000000E+00  0.00000000E+00
  0.00000000E+00  0.00000000E+00  0.00000000E+00
  0.00000000E+00  0.00000000E+00  0.00000000E+00
  0.00000000E+00  0.00000000E+00  0.00000000E+00
  0.00000000E+00  0.00000000E+00  0.00000000E+00
  0.00000000E+00  0.00000000E+00  0.00000000E+00
  0.00000000E+00  0.00000000E+00  0.00000000E+00
  0.00000000E+00  0.00000000E+00  0.00000000E+00
  0.00000000E+00  0.00000000E+00  0.00000000E+00
  0.00000000E+00  0.00000000E+00  0.00000000E+00
  0.00000000E+00  0.00000000E+00  0.00000000E+00
  0.00000000E+00  0.00000000E+00  0.00000000E+00
  0.00000000E+00  0.00000000E+00  0.00000000E+00
  0.00000000E+00  0.00000000E+00  0.00000000E+00
  0.00000000E+00  0.00000000E+00  0.00000000E+00
  0.00000000E+00  0.00000000E+00  0.00000000E+00
  0.00000000E+00  0.00000000E+00  0.00000000E+00
  0.00000000E+00  0.00000000E+00  0.00000000E+00
  0.00000000E+00  0.00000000E+00  0.00000000E+00
  0.00000000E+00  0.00000000E+00  0.00000000E+00
  0.00000000E+00  0.00000000E+00  0.00000000E+00
  0.00000000E+00  0.00000000E+00  0.00000000E+00
  0.00000000E+00  0.00000000E+00  0.00000000E+00
  0.00000000E+00  0.00000000E+00  0.00000000E+00
  0.00000000E+00  0.00000000E+00  0.00000000E+00
  0.00000000E+00  0.00000000E+00  0.00000000E+00
  0.00000000E+00  0.00000000E+00  0.00000000E+00
  0.00000000E+00  0.00000000E+00  0.00000000E+00
  0.00000000E+00  0.00000000E+00  0.00000000E+00
  0.00000000E+00  0.00000000E+00  0.00000000E+00
  0.00000000E+00  0.00000000E+00  0.00000000E+00
  0.00000000E+00  0.00000000E+00  0.00000000E+00
  0.00000000E+00  0.00000000E+00  0.00000000E+00
  0.00000000E+00  0.00000000E+00  0.00000000E+00
  0.00000000E+00  0.00000000E+00  0.00000000E+00
  0.00000000E+00  0.00000000E+00  0.00000000E+00
  0.00000000E+00  0.00000000E+00  0.00000000E+00
  0.00000000E+00  0.00000000E+00  0.00000000E+00
  0.00000000E+00  0.00000000E+00  0.00000000E+00
  0.00000000E+00  0.00000000E+00  0.00000000E+00
  0.00000000E+00  0.00000000E+00  0.00000000E+00
  0.00000000E+00  0.00000000E+00  0.00000000E+00
  0.00000000E+00  0.00000000E+00  0.00000000E+00
  0.00000000E+00  0.00000000E+00  0.00000000E+00
  0.00000000E+00  0.00000000E+00  0.00000000E+00
  0.00000000E+00  0.00000000E+00  0.00000000E+00
  0.00000000E+00  0.00000000E+00  0.00000000E+00
  0.00000000E+00  0.00000000E+00  0.00000000E+00
  0.00000000E+00  0.00000000E+00  0.00000000E+00
  0.00000000E+00  0.00000000E+00  0.00000000E+00
  0.00000000E+00  0.00000000E+00  0.00000000E+00
  0.00000000E+00  0.00000000E+00  0.00000000E+00
  0.00000000E+00  0.00000000E+00  0.00000000E+00
  0.00000000E+00  0.00000000E+00  0.00000000E+00
  0.00000000E+00  0.00000000E+00  0.00000000E+00
  0.00000000E+00  0.00000000E+00  0.00000000E+00
  0.00000000E+00  0.00000000E+00  0.00000000E+00
  0.00000000E+00  0.00000000E+00  0.00000000E+00
  0.00000000E+00  0.00000000E+00  0.00000000E+00
  0.00000000E+00  0.00000000E+00  0.00000000E+00
  0.00000000E+00  0.00000000E+00  0.00000000E+00
  0.00000000E+00  0.00000000E+00  0.00000000E+00
  0.00000000E+00  0.00000000E+00  0.00000000E+00
  0.00000000E+00  0.00000000E+00  0.00000000E+00
  0.00000000E+00  0.00000000E+00  0.00000000E+00
  0.00000000E+00  0.00000000E+00  0.00000000E+00
  0.00000000E+00  0.00000000E+00  0.00000000E+00
  0.00000000E+00  0.00000000E+00  0.00000000E+00
  0.00000000E+00  0.00000000E+00  0.00000000E+00
  0.00000000E+00  0.00000000E+00  0.00000000E+00
  0.00000000E+00  0.00000000E+00  0.00000000E+00
  0.00000000E+00  0.00000000E+00  0.00000000E+00
  0.00000000E+00  0.00000000E+00  0.00000000E+00
  0.00000000E+00  0.00000000E+00  0.00000000E+00
  0.00000000E+00  0.00000000E+00  0.00000000E+00
  0.00000000E+00  0.00000000E+00  0.00000000E+00
  0.00000000E+00  0.00000000E+00  0.00000000E+00
  0.00000000E+00  0.00000000E+00  0.00000000E+00
  0.00000000E+00  0.00000000E+00  0.00000000E+00
  0.00000000E+00  0.00000000E+00  0.00000000E+00
  0.00000000E+00  0.00000000E+00  0.00000000E+00
  0.00000000E+00  0.00000000E+00  0.00000000E+00
  0.00000000E+00  0.00000000E+00  0.00000000E+00
  0.00000000E+00  0.00000000E+00  0.00000000E+00
  0.00000000E+00  0.00000000E+00  0.00000000E+00
  0.00000000E+00  0.00000000E+00  0.00000000E+00
  0.00000000E+00  0.00000000E+00  0.00000000E+00
  0.00000000E+00  0.00000000E+00  0.00000000E+00
