Mo  S Li 
 1.0000000000000000
    27.1203981867000010    0.4023603500000000   -2.4028070269000001
     0.3017446571000000   23.3624652224999991   -0.4376913698000000
    -7.1295779436000002   -0.2894054832000000   10.3645110117999995
  48 208   1
Cartesian
  9.7789772902831480  2.0728043863972307  5.6494615658425404
 18.8861237938402553 10.0314274315342455  4.5385910836054144
 20.7223267026047395 13.4253051584402421 -1.9508047761609464
 18.5957019118631024 18.7247634726152405  6.1871636215706562
  6.5382324095446416 10.8467193052685307  0.8228989107374010
 11.9881772930213035 12.5244306556192484  2.3798321179762718
 12.5041820345435326 21.3762078345957534  5.7187367772773632
 -3.3259327193002135 22.6335263370179405  7.0819596036437220
 19.7795410496303923  6.0077259735813939 -0.5237410748468142
 21.4298427224052297 21.3795016220612233  4.8787672244905762
  9.6051715561290276 22.6450011213176872 -0.4300866934198374
 18.3933889518918647 12.0971584868960118 -0.7040632924844886
 19.5480750914703592 16.1144537710481650  5.1569204903990933
 22.5058931634962249  6.4595686271547050 -0.2562804763507769
  1.2143388372612622 12.5687543485007751  5.0739545824559800
  4.7525859689054970 21.3752287044563545  8.5550446028988620
 18.8027783386931091 21.9292554443724796  5.3989923913373818
 15.3746738753468044  1.8441263379147785  0.8482774628528748
 15.8158005037281821  9.1144322232807564  3.9577398143117466
 14.4473428432867390 11.6217404773549440  0.7104971091208875
  7.2755268600988812  2.0810505916422692  2.3959122921231581
 19.4481883490300866 20.1284289903005984  3.1388785422668493
  2.3957057070532892 15.9180996240071426  4.3240214454164558
 12.7963019925140902  2.6071292739391989 -0.4583890061333726
 12.3083192393862255  1.9765494318603316  4.4089418260363358
  6.5578707349357366  4.4509686868488041  8.2906610635907523
 16.2720510486925534  4.2993321317609867 -0.4687889159642576
  6.5313125679968049  8.3048843334959859  0.0125456194372262
 22.6800293139189364 22.9413735010797346 -2.0599023258370011
 13.4055032114868649 10.2900970723234391  2.9514416313925391
  7.6249572191315984 18.2154952541495163  1.4734756257406834
 13.3633795362508927 23.1911687309058934  0.1077879017102995
 -6.1997030866209517  4.2439834973041313  9.6954799320448899
 20.4057591052039058 16.0305636091023977  2.5353626250680046
  5.6229899198980222 17.5907094173878278 -0.3716940933617435
 10.6988642118442314 23.2276442845562308  3.6994941724284538
 13.7460188746294456  0.6962040205946083  6.6829853909744070
 17.6633608011479915  3.0958508247772634  1.6537589697180768
 12.6116265322139949 20.5569171389867194  0.7882243276755475
  0.1337351693385409 10.7627210408236955  6.8238012004840707
  4.7033738542355472 15.5714797769683653  5.9521859097351468
 -3.4750282425722521  3.9131589009916641  8.9152233998814623
 -0.8061065421406146  5.0111957456237342  9.2536572845840315
  3.8596543114022670  4.1193586126121948  8.3534658490221148
  2.8575785040404234 17.7805722866795506  6.2141280742811587
  3.5170076705483706  5.7580802805057498  2.6234070293677880
 23.6663393771966142 13.8943877034154717 -2.3378739147622896
  5.4454213817657831  3.9869724524925281  1.4488640045369046
  4.5582340265541070 20.6616785308748341  1.6975851583500219
  6.4579466885920382 13.6125465440727886  5.9600726075823260
 -0.7727186907139739 18.1279104453389763  2.9627565090231771
 10.1715590446513122  2.1353523909793890  3.3558792470789442
  7.5775580192049690 21.7899135333180460  0.4860657302734753
  7.3564366687816047  4.3977847556084662  2.8164588612215482
 -3.4613314823561145 10.7976302489055076  6.3999007264674015
 17.4087551931013813  2.2036569553262284 -0.4917762371161807
 -0.7904784035165850 11.6429366303658401  4.7945385090429058
 12.9197839334863200 14.8335079699335104  6.7823599849108671
  8.4013497353852138  1.4383555874050378  0.5443171013793523
 14.3895128906932026 18.9953960302019276  1.4059366008635947
 -4.5129565042317861  6.1803653302187529  9.5572642168905233
 20.3344735156221468 18.2304158843271544  1.4061463907863889
 25.9580626326161195 13.0849596865921605 -2.1550418520713936
 16.8128286629796975 11.1925141226401728  4.2280467824351158
  1.8677074380519882  1.2422536208172916  3.8512542011128752
 -6.0794494043824319 13.8958625408282526  8.2298852191694838
 24.6288370825849370 12.5851173991031065 -0.6785613489362446
  1.9787677737566294 17.1580582561337387  2.3054710906783749
 13.5222047432948234  5.3040522518485549  5.3582160836711772
 -2.4538310083932440  1.3193109854172476  4.1358838863226213
  4.7382860980076966  9.3753289174907906  1.3649768166749874
  1.4477920729286231  5.1801697585398001  3.6886832024158136
 14.0277285730686447 10.0675905257100666  5.2998618172997389
  0.7383452623845160  3.6206632324605059  8.1268733097662924
  8.7626367248374262 17.1487211304845069  7.8133772881184287
 11.1147424656543024  4.6598427371474296  8.4797010566142443
 19.5851273125017222  8.1891871097477313 -1.1282021228405490
 21.0740698095370256  5.8637136586719611  1.4220349282612812
 21.4056351703042864  5.1631079183222042 -1.8913205114589506
  0.5156823653406577 14.3605293939396184  3.5243550212076262
  8.9448765835171464 14.6571530114863986  1.9231004933953542
 14.1087135396533707 22.0043211023872232  2.0290533522525305
 -2.0365834317426756 11.5830976262515311  7.6445292931573627
  9.6542742318695591 10.7854655782373676  8.2315041837657912
  4.2728869996336201 10.9820591253273001  3.8766102544031003
  2.0832014243641539  9.0755540403360513  6.5577269421940052
  9.2114145962226495 15.0106488515049072  7.4486901549169211
  2.9763563502172770 15.4384550183861720  1.9011862830106634
 14.2959743845589422 12.4652046785072255  3.0194382315978472
  1.6791769337043447  0.4618654729292003  5.7610745362832381
 20.0327104512197529 11.1769807387675275  0.6657866496276530
  6.8540626827355693 15.3411189400977985  4.9477917907519631
  5.0888995147444405 18.6131263787386914  1.7850056831975070
 19.9338116050506997 22.4904767591517114  3.4147733125634221
 20.1038634487001069 11.6715086880341925  3.9532592770203498
 -0.1515752112383628  6.0287885733419859  0.7853081433124278
 11.2716788711827522 22.5688450559301614  1.3823942542758019
  9.4691664283250656 16.6829862605587316  2.2912959061795948
 11.8515186484037667  2.1748243872399420  6.7523397228383448
 -3.0226889809344524  8.7940691367419586  6.3979460988080286
 21.7293263099034846  4.5715617411996083  5.0158266649553394
 22.3048814217398359  1.6531934368930679  4.1425611532568238
 -0.9753193518340909  8.6830953636959496  6.1809486984679607
  8.3014925524320944  6.6294057120805059 -0.3709995028813134
 11.2364979436097290  0.5837624873512673 -0.8578265411596608
  6.5577914813067046 13.1480685018224808 -0.0092298201303055
  7.5298962206653473 19.9911398382840524  5.0244427159775071
 10.9995154390900201 21.3499822378322470  7.5096427827330912
 11.9333795259633213 14.4833146512243722  3.6515814102704773
  7.9990872287976753  7.7086640425110167  6.2264792471733852
 14.7384204136533086  2.0576239253392976  5.2311502320840813
 18.1141439606362198  8.9873723126637177  2.5406828038385858
 21.3703903041337711 21.7576195501332847 -0.8261995789048320
  5.3854581032132112 20.3295189325291190  5.4608317696227058
 12.3207493465999054 11.3583923868623025  7.6202375346424676
 -1.7291390473524746  3.2731440521121158  4.4901763016903722
 21.3986829275741179  1.6365549177292349 -1.5302172361238844
 12.4112351255061757 18.2819732118223364  3.9691669987868607
 -1.4219297636021504 15.0311650637617031  4.0775082889887395
 -2.3531638050706412  9.6379453937359933  9.7219499597241334
  5.1417112197735078  1.6133952102226954  1.9958308094461734
 21.6683497912302094  8.5114091464771029 -0.8166611926734753
  5.3229853333793509  6.4175699459412705  1.0404872772325640
  8.0135798933726470 23.3291511188907670  3.1726596951100117
 18.8797856701647575  3.3747607386572089  3.7392953682480381
 18.4667996925662159  4.9487341674281762  6.6201184092049736
  2.4409361941227705 12.4244360809733312  0.1544580992844145
  5.5466151507144028 12.8342433421329343  1.7780956460122705
  3.7910829210271140  7.5968482548603591  4.0535554606944721
 18.7713926921918599 14.6688241606008880  3.4286011931824860
 19.6684110501305298  8.0439870134842941  3.4764980289969185
 23.0021216145266649 21.7527244248318894  3.0537963031680313
 15.5318576114336100  4.0199335345294802  1.9463989081979893
 10.0005829487096989  6.3647138351613979  3.7886503877270816
  9.7969612455504400 23.2594630232174211  5.8877299172887989
 13.1574808693152630  1.8087138756750194  1.8821801659206965
 14.4113529893063550  0.9218421926340259 -1.1371153156060381
 -2.0928135307199529 19.3854341477620871  3.9768811519078464
  2.1351573688766923 19.7793959951020746  5.1730637196638307
  9.4602747504105409  7.0991926419977425  7.6489884133565003
 24.4845886920071862 22.2649315365875324 -0.5817038054930679
 10.0464851758169758 13.7388858982571183  3.4946510119783185
 14.8901453873911294 10.8113964691172999 -1.4213676351384885
  1.3374654339506413 19.6050721076102654  7.0276998541121811
 17.9443302479658051  5.4158400369160162  0.9651625055954244
  0.6133498670087851  9.9928388419284904  9.2066314421395763
 16.7684708078774811 23.0160072001176204  1.0049387115271244
  9.6775957428785286 17.5058651837352990  0.4774958251660872
 20.0437635577431124  9.4034530437274917  6.6140602371600883
 12.8728854378858539 18.1632435952028750  0.4108769843132731
  3.4115335161127365 16.1012075761797213  7.9499591567489851
  2.1078431165743412  4.6181142606323720  6.9230214785525170
 -1.2241279399395923 21.7569585535587144  7.6653535194323270
 15.3471365136048998  6.5756801264040172 -1.2858460600041419
 -3.6203652241208624 18.0271439594137703  9.1991508535881366
 -5.0354680444060298 22.8601540847115281  8.8018961852562612
 11.1245756198363459 10.6743993013236089  3.4504127334228145
 15.5580173020396568  5.3716707368441723  5.0430412186241309
  2.2977511797409567 11.7031120010506786  7.0591365985034908
 19.7961314412536815  2.4066363309049401  2.2173617192377773
  3.3993729010086877 13.9125319798116607  5.0348614715906574
  7.6873338944693437 13.8714089584396749  7.8997067344103788
 10.1599880190583320 17.8608377011037902  6.5319826911725078
 -6.5833951697562787  2.1471325907007230 10.0829306809532468
  7.9429690553687529  9.1442733597158679  1.6123937523978049
 11.2829569375967225 19.4419437312924188  2.6999025630695410
 17.3641217821645597 20.6227041433426912  4.3047615134247588
 15.2155466733546056  9.3918278170056837  1.6621336653399148
 -2.3891638306292169 17.2204413793830291  7.7450584180357653
  5.1139543135766825  5.6681645206629874  6.6748361949124746
  9.1594548996625615  8.1529548687454589  4.6461278046837569
  1.8730384649912719  8.0921398814459291  4.7936397973043494
 18.7160675407306378 22.6588230723097901  0.2907030034678255
  8.5247988602452267  3.2585353816461704  7.5552720149338608
 14.9476601669018834 21.9249415103483685  6.1660254579227587
  8.0925089076492203 20.4260936352284368  1.9520245224847588
 20.0931729778861730 20.5347752271125756  6.8036880475519910
 19.8584565620734459 17.2133257907137072  7.2939770354291653
 15.8108686548434765 15.3633181333151825  5.0247906651628131
  1.1366031626462936  6.6800736963405427  2.3203381986237579
 24.0726868665098728  4.5194552737066545 -0.7607413716717277
 21.5378066890992130 19.2885132092713860  3.7526331798875039
 12.8256603574406771 13.4198805676324184  0.1866050235776707
 21.2643478519921096  6.5959539640250044  5.5571428843943291
 -1.9310340009433355 15.3952585002773734  8.5733703082080837
  9.0699648630418253  5.6323307142246852  2.1553257739847678
 21.6113959427410585 12.2274375549568202 -0.0981449950355679
  2.9190748692915021  4.1340346058559154  0.8560258911046917
 23.7071066604738476 20.4570065120282543  0.1783126120895126
 10.8470523178935849 10.1712042848886810 -0.0740563319625604
 17.1156825739279128  8.2648254059896757  5.9244884529091904
  4.3640537784042097 17.3605098710948482  4.5189077746222557
 17.8892393232237765 23.1413912417834133  7.3771547730116440
  2.5180134616616701 20.5849171946321086  1.2652418747142329
 -1.4332393220288471  2.7602444552191105  9.6651515046155314
  1.3300483440319704 13.9901986696460412 -0.1376788736115320
 -1.0119949725961503 22.5834247920675608  5.8158427656911966
  4.8757975147645407 19.2271900858178739  7.1639941065810255
  2.3400121981751862 11.1726703528218572  3.6441995637371059
  0.1938688611647735  6.9931201075946667  8.2763447322879138
 18.3580647780815696 17.9597004828535667  4.0342432710388394
  0.6459087597879467  0.0610025963037974  2.6282093620074365
  7.3588035195690580  1.6391054162629992  4.7812241953835306
 13.7695122296185932 19.6604826714640843  4.6828084130430021
  0.9179683704654118 16.5704291993399906  5.9449568285858589
 12.5433456228287152  4.3170618298431203  3.8562115652795712
 16.8459765991278552 12.0563083916995453  0.9906939750605286
 14.3230134605647716 16.2069178014998627  6.1182400331825644
  9.2308134357025970  4.3813016740742858  5.9291116077755310
  5.3315412106136835  2.5639030475408529  7.4953951114176558
 18.0837739112781648  9.9121241226225685  6.8544472638928760
 14.8598454417421202 13.9813805612641975  0.3199062915934967
 13.7555618586846560  4.6782257429195289  0.2087263924917339
 12.5237275766586826 20.0038152606523276  7.7966128806341812
 17.3661202519866293  3.5966076007186434  7.6519500203855522
 16.2163578036642164  6.7046201846688627  3.6023112790454497
 16.7414764372964591 18.7328760610834095  7.2435981513831731
 10.7239069233218842  3.7727358640540807  0.1308898260584603
  7.0975193635293010 11.9933872213532187  2.8778666485227249
 10.5144549091438755 20.3221828808636680 -0.4599306286481860
 18.8163848943562009 14.2915505111191763 -0.7757516930157284
  1.2911945160190044 21.4591732419554901  2.6678036314247486
 10.6397930750260983 20.8402618105416231  4.2657813429016382
 12.9982980458801016 22.9929578878015803  4.0211425321428012
  4.5919834528596715  4.2239770397089247  3.8261637208367723
 11.9486345436293053 17.9194181681833022  7.5524465345587171
 13.5241533892900918  8.2909375214907612  4.4355990024557279
 21.5070655729887861 17.0681886912852079  4.3487185031974924
 25.3180658638606566 16.7640283444893043  0.1914729077943370
  2.3216136511853054 21.8439845118873777  7.7776993872313014
  6.4219141492386695 16.1545158646734208  1.2840083142799208
  5.5477172998710023 22.1699326389196720  6.3177145354204463
 21.9651638169549983 14.7219802662565087  1.9150381959995537
 16.5535204554165993  1.1759868310095962  2.8878582330849700
  4.8902443922591674  6.2182963474606208  8.6566336308781189
 17.8895847004031090  0.7856215559450064  6.0085350140172329
 22.7081955691879287  1.9542611070803804  2.0139697351203143
 18.9491497195562069 20.6836283026885610  0.9371698201437273
 -0.1075972475224009  0.9732604078365443  6.6137334427749499
 -3.1731464621957635  1.8198345658345056  7.6901756626674995
 14.0730321117905390 21.1747850588586068 -1.0182154875334097
  5.4731672266999798 16.1885879753426671  8.1285907887800306
  0.8175629227948901 13.1046797190130651  7.4634126920696060
 10.5074534265168751 12.1276225133543178  0.4800293074363646
  7.6854155409842315 18.2487124779740704  4.0744316278617418
 17.4429898797997254 14.9814035272657442  6.3126382120996274
 -2.3121516308182906  5.3697065797877412  7.5640948291950192
 -3.8517423930134691 21.1973952577584974  8.9208710176478050
 22.3260133242180920 15.2221142063702573 -1.1717607603328377
 -1.1637191042906063  3.9008168690536729  2.6664239818764766
  7.2596256850921463 19.0197980934878181 -0.7851726921467960
 24.3375709519963692  8.0540499439204414 -0.1890843302571596
 24.1035568717070063  6.9493394818125216  1.4847810654045401
 19.0051879567507136 16.8058605202931197  0.7702196635449540
 12.7563592047525844  9.6866682666613144  0.6089328209899547
 15.2682062675413199 12.2755944529064038  6.8257924746829559
  5.1103959796920320 15.2747849596909795  3.0073914273677245
