Li   F                                  
    1.000000000000000     
    12.0789003372000003    0.0000000000000000    0.0000000000000000
     0.0000000000000000   12.0789003372000003    0.0000000000000000
     0.0000000000000000    0.0000000000000000   12.0789003372000003
   Li   F 
   108   108
Direct
  0.0003836216646642  0.9994070070232288  1.0003199563766620
  0.0005515889501961  0.0007187154089804  0.3266111795597655
  0.0006369531561957  0.0003190558713844  0.6713377544532382
  0.0004766006355161  0.3258749339439140  0.0005107014202533
 -0.0005899309020653  0.3265281119712070  0.3260881994991386
  0.0017538017157547  0.3263753859769581  0.6740585278849957
  0.0000617593466551  0.6710841171322398  0.9996626184959798
  0.0019871177249486  0.6738089957969433  0.3275924947258644
  0.0001405052279216  0.6740747983090729  0.6520627353624998
  0.3286494741761961  0.9998324140226564  1.0000752057824238
  0.3289130928946868  0.0003273866174815  0.3280929562333756
  0.3289855633246521  0.0004661988721119  0.6719896717657957
  0.3287403349203118  0.3277386328864236  0.0005190147709286
  0.3443090852517568  0.3286347678016033  0.3288406468970705
  0.3299717327312180  0.3290820523548372  0.6721049512799707
  0.3280171369672832  0.6716683571072687  1.0000854291398684
  0.3448489866379120  0.6718472315187605  0.3286370526774461
  0.3286822197306996  0.6703712364451104  0.6705159882180993
  0.6690971094686725  0.9991397439755713  0.9999994857083047
  0.6715385637291176  0.9986727608661098  0.3279654343685112
  0.6686403849061546  1.0000727314224771  0.6720866030924343
  0.6716061069650938  0.3270213700178438  0.9981920726513489
  0.6727106578385528  0.3290204104914979  0.3281439734737515
  0.6724014287748731  0.3290677816273573  0.6708402832597388
  0.6716319115064655  0.6718217227014368  0.9989435587279074
  0.6719278447075187  0.6704378879972064  0.3286802222909766
  0.6722878628740299  0.6717501160409088  0.6707386005366012
 -0.0001481545484628  0.1702504723622328  0.1705963014827822
  0.0001693926577937  0.1700883265504491  0.4998375880121513
  0.0003555217449602  0.1546296173041063  0.8296860607710665
  0.0002046646459739  0.4997241660707232  0.1703000157603470
  0.9710422260421615  0.4766669784745035  0.4770930570939221
  0.0005902359860241  0.5006268815075944  0.8481559788820768
  0.0004006657618708  0.8291160577216591  0.1552752239763642
  0.0006097478933569  0.8492764665392227  0.4995978676413318
 -0.0004808715964602  0.8274027399836852  0.8277887605844090
  0.3289425773845003  0.1706452539560577  0.1709877379491446
  0.3440468683857414  0.1708466778112676  0.5001851603693723
  0.3291836567518325  0.1705918495292042  0.8292462400245360
  0.3441717335893446  0.4999197698940429  0.1711111155322492
  0.3518852897537455  0.5004511476958799  0.5006331764004309
  0.3447203378736028  0.4997712613635686  0.8472168546093776
  0.3292096205589911  0.8288911930646976  0.1709473749299942
  0.3452010808679473  0.8470711624094727  0.4999344756126112
  0.3293096471875808  0.8288078785728669  0.8290894476436550
  0.6709420996015164  0.1703356583813924  0.1705993720020550
  0.6707606843698557  0.1563871085627937  0.4998744726811207
  0.6714171650475393  0.1713955620663409  0.8292048296257943
  0.6709282402664357  0.4996854577434613  0.1561041638608955
  0.6713918337638396  0.4998569495046414  0.4999935711354551
  0.6729916794320864  0.4993563853802833  0.8274222890787065
  0.6715139839316020  0.8287765212465992  0.1716114472573529
  0.6729626944192273  0.8273476229524953  0.4994967803369008
  0.6709201999965280  0.8285160574094637  0.8286108884226991
  0.1707802442274893  0.9998893754799264  0.1710799848272898
  0.1730680025271725  0.0020643836789046  0.4998213227973248
  0.1718274120666761  0.9994087628650182  0.8292171738206994
  0.1721356035263126  0.3293665767155509  0.1714911421629456
  0.1730191916351671  0.3206536486101292  0.5004166188620295
  0.1702244118254606  0.3276992128511122  0.8299580998669884
  0.1725583086782892  0.6704007035185080  0.1713511603137328
  0.1743686994809349  0.6967772838274550  0.4986247776849294
  0.1703098220343929  0.6707854143481490  0.8294300352133586
  0.4998063060334630  0.9997245308182515  0.1709142233526283
  0.5010833791350804  0.0001587344837187  0.4999745759173748
  0.4997060124834221 -0.0001298172031609  0.8289721601612001
  0.5009846105206280  0.3277546666597942  0.1695814674137747
  0.5025235215651708  0.3275274358255464  0.5005382278295033
  0.5006034934083856  0.3277333866064300  0.8289127576720390
  0.5007716060567377  0.6718307264869720  0.1545789368090073
  0.5014945655167367  0.6718376881639579  0.5002559927758979
  0.5003529733087063  0.6718376189943336  0.8284891748349776
  0.8285465188331943  0.9992835505663058  0.1713972476815496
  0.8283872094407612  0.0002658336129111  0.4991527184458984
  0.8274935159454424  0.9994866981803151  0.8294847369256303
  0.8285101485684577  0.3270562572598905  0.1547056714552309
  0.8242687523884040  0.3238770065337577  0.4998330161541741
  0.8461785192852528  0.3271056520999148  0.8297892940116273
  0.8288048190203584  0.6709679355373563  0.1707369977207355
  0.8479919223480723  0.6742962853309480  0.5010380354708612
  0.8289096239202226  0.6727380541046966  0.8288220529219583
  0.1707345301297344  0.1705005934101948  1.0001841271299041
  0.1721400019031444  0.1713260851492308  0.3297547372470515
  0.1720410201746028  0.1698805049996702  0.6709044575527496
  0.1728821438541296  0.4996673861669507  0.0022571641068675
  0.1736494477685558  0.5006820296934609  0.3211390395766143
  0.1727204401133033  0.4993955745965356  0.6970935853406180
  0.1717094222704534  0.8287262952590213  0.9996975025488640
  0.1715320709882361  0.8289253954369165  0.3280277410575103
  0.1715860769173765  0.8302326267921559  0.6710624104034613
  0.4997799676268868  0.1704866340558700  0.9999121281069832
  0.5010022520045506  0.1695955504562361  0.3280437496164943
  0.5002832067494460  0.1709531130528799  0.6720319440623242
  0.5011436017570463  0.4991105119361998  0.9997960621193626
  0.5029843849345729  0.5004540260028536  0.3271379292670288
  0.5010960827645503  0.4998170636800386  0.6719880049788987
  0.4997685703470542  0.8298359813728678  0.9993659630620582
  0.5012985416232308  0.8285773000261697  0.3273533841827129
  0.5002204681162785  0.8287867922700015  0.6720100045176181
  0.8285061368724734  0.1540279525731003  0.9997040553615431
  0.8285397202521341  0.1701009800859820  0.3271996391661123
  0.8285625111264885  0.1707544409854726  0.6714487127080759
  0.8285725654775266  0.5000305561918821  0.9993154554954722
  0.8242432562728406  0.4988825387765619  0.3233851390304946
  0.8493897969929414  0.4995588668160870  0.6745793754978773
  0.8276663054633635  0.8288389266480948  0.9995891489061716
  0.8459395214720489  0.8288445780791250  0.3279490921709634
  0.8274954441060929  0.8446896765211178  0.6722307554573287
  0.0000675251383749  0.1620806124656985  0.0020894329542861
  0.0022199145782861  0.1673833485171252  0.3318467217166989
  0.0009964301986460  0.1653385848246690  0.6673858749008004
  0.0006589809591463  0.4986348704157670  0.0037744955224375
  0.0082842324680654  0.4992410492085301  0.3320567925534424
  0.0249277555695229  0.4721583614669789  0.7037990545426457
  0.0008004243051838  0.8317464239311629  0.9980434950363247
  0.0031232092298419  0.8400503602104246  0.3209788298432923
  0.0028982196795717  0.8372900188284296  0.6661808784411362
  0.3319853876336241  0.1669631616249141  1.0008014582215130
  0.3349613570372424  0.1688529731845610  0.3327434940808617
  0.3345795801770387  0.1676778383740143  0.6675956401200521
  0.3377093657727931  0.4995402945776948  0.0048124229334209
  0.3349926686016170  0.4986269880847475  0.3367421166527369
  0.3296943484339915  0.4993704731172341  0.6632027931203395
  0.3323670018081585  0.8316476171914118  0.9996669472827722
  0.3356630523359678  0.8333033717016255  0.3322001804755378
  0.3338874783642181  0.8323069940928981  0.6675653769991774
  0.6670039810787254  0.1650421946164444  0.9992605852642696
  0.6669233502181160  0.1647445040385718  0.3309337860753301
  0.6672665153782270  0.1654759435914357  0.6683736378179002
  0.6673948717164403  0.4992005056020652  0.9976026505127784
  0.6628269119562358  0.5001462378131811  0.3215672151391428
  0.6716073074476923  0.4993804923385612  0.6668856058915402
  0.6659653173682020  0.8318933419488265  0.9999634295612055
  0.6692336378476026  0.8314385156807155  0.3314221893295719
  0.6627313017571251  0.8376674656332117  0.6675220930261726
  0.0003365868162026  0.0007586887537377  0.1647452676309080
  0.0007590465339566  0.0043709683733400  0.4991293807498360
  0.0002966100008469  0.9972788836354847  0.8323897303411327
  0.0026673475744925  0.3315518535031139  0.1662049625770472
  0.0072416741404219  0.3311825466844365  0.4986596602853079
  0.0029266595058201  0.3178803272169293  0.8414077644151242
  0.0013342302070999  0.6668838990679378  0.1665640842682955
  0.0246922544309743  0.7035939682049210  0.4781558876458022
  0.0019789050764934  0.6673349365447196  0.8334912384158852
  0.3321011391539500  0.9999127745151524  0.1676961499978083
  0.3376861055976998  0.0046047223328766  0.4998569704061895
  0.3322885541075853  0.9991538880094951  0.8325484712838291
  0.3349979287870828  0.3322196272706843  0.1692467043263830
  0.3330702765297415  0.3368159028909417  0.4990670456868340
  0.3336370209637428  0.3318994127085748  0.8339027130415323
  0.3362517211299461  0.6670316619914540  0.1667082566810297
  0.3324236070590373  0.6631399048929441  0.4999116543811380
  0.3333677943521660  0.6670638790908325  0.8323235922846259
  0.6668774171009965  0.9985590231489927  0.1671839795855197
  0.6672932049137860  0.9983570833808915  0.4995189935042564
  0.6661436579143072  0.9999015556059020  0.8328097257834407
  0.6666553498623050  0.3305300342368851  0.1628537008342008
  0.6627308249804921  0.3220364583293486  0.5010141454519084
  0.6685433028783742  0.3311095953040570  0.8315113550320499
  0.6676829446290833  0.6677716503804476  0.1637805976734420
  0.6707475063329903  0.6667105480264990  0.4990967204717806
  0.6646629238114510  0.6673733355021315  0.8345937656390821
  0.1687533002880627  0.1685163139740679  0.1692878635142195
  0.1709619816501262  0.1661905500917016  0.4993604236413993
  0.1693773941870520  0.1648659532738671  0.8324361575467495
  0.1713447745849464  0.4991638067446540  0.1667786843221045
  0.9299648339890357  0.5717496683883223  0.5740136631633329
  0.1800855599858825  0.5005838843745705  0.8467682456207696
  0.1695613048898732  0.8314468768111312  0.1661062118302914
  0.1805081301056771  0.8464170830198170  0.5007203306773725
  0.1687172074499505  0.8311099584011010  0.8313485973985271
  0.4994989515341826  0.1669180399409100  0.1674665328222181
  0.5007018480090881  0.1661019763234755  0.4996466585038186
  0.4992804828278651  0.1671785964967075  0.8325586429433421
  0.5010547499936112  0.4995534072840817  0.1646153508342660
  0.5049474118843583  0.4991499508048490  0.4998252993134955
  0.5010255286948341  0.4989264201563540  0.8324684185540245
  0.4996796767890401  0.8316474548324873  0.1660035460737410
  0.5013656791586252  0.8323406849497752  0.4994076132901086
  0.4986634154990715  0.8322022082079494  0.8324463832885131
  0.8316616715745023  0.1636201294942266  0.1639975509134432
  0.8328217737802640  0.1656377404125502  0.4992195154686784
  0.8326539858975687  0.1630215859080967  0.8324566955839274
  0.8329409421839261  0.4997476457394462  0.1636368426614523
  0.8145319291470975  0.4677648018143726  0.4677913479026830
  0.8351870767072558  0.4994941646019561  0.8349374033966470
  0.8329741734120774  0.8313670463258066  0.1656440357529539
  0.8355552726300651  0.8373054375399304  0.4979517056936580
  0.8315485465123017  0.8378958596454711  0.8364572420668684
  0.1678205770996692  0.9985870366277410  0.9997467093235456
  0.1693333767472172  0.0016764620815803  0.3313984808655222
  0.1686745972050999  0.0013508862514860  0.6686250962453812
  0.1692165234113459  0.3306047637110885  0.0023664698481785
  0.1701299180712213  0.3373001614193144  0.3374674125413097
  0.1742540119753148  0.3288585074705656  0.6644769690377325
  0.1682185885561914  0.6680433937643611  0.0016968838170663
  0.1767316938302761  0.6642321727130671  0.3314263474773249
  0.1674893761766341  0.6648085871345232  0.6632112695106653
  0.4987153298824286  0.9994523412670943  1.0000759287150811
  0.5001398991444850  0.9991341856436123  0.3321780698762747
  0.4985766042974637  1.0005279498984965  0.6673880682548270
  0.4997399861136518  0.3315616131220032  0.9992364484832960
  0.5016315193245513  0.3316655984031434  0.3316733858210066
  0.4984887695140050  0.3326733643163489  0.6677891210469816
  0.4991809148742024  0.6669031087825404  0.9972691658638743
  0.5016954064779143  0.6673157156292677  0.3318267125112232
  0.4992967142253207  0.6664541742538647  0.6669662732359145
  0.8312212311061203  0.9966813883396609  1.0003575702059584
  0.8331771767109816  0.0007074835216192  0.3315895530024554
  0.8316991679977734  0.0023034319372515  0.6673337166443944
  0.8330163624372282  0.3300432167153999  0.9978179768024893
  0.8345237364216989  0.3244109495047882  0.3195473868794333
  0.8364933836055561  0.3307529256674367  0.6671959544578883
  0.8325316858670364  0.6675476864627782  0.9995256529166048
  0.8369033642109002  0.6662567018208062  0.3318768742844633
  0.8219410999317499  0.6912377646620392  0.6796675186922139
 
             NaN             NaN             NaN
             NaN             NaN             NaN
             NaN             NaN             NaN
             NaN             NaN             NaN
             NaN             NaN             NaN
             NaN             NaN             NaN
             NaN             NaN             NaN
             NaN             NaN             NaN
             NaN             NaN             NaN
             NaN             NaN             NaN
             NaN             NaN             NaN
             NaN             NaN             NaN
             NaN             NaN             NaN
             NaN             NaN             NaN
             NaN             NaN             NaN
             NaN             NaN             NaN
             NaN             NaN             NaN
             NaN             NaN             NaN
             NaN             NaN             NaN
             NaN             NaN             NaN
             NaN             NaN             NaN
             NaN             NaN             NaN
             NaN             NaN             NaN
             NaN             NaN             NaN
             NaN             NaN             NaN
             NaN             NaN             NaN
             NaN             NaN             NaN
             NaN             NaN             NaN
             NaN             NaN             NaN
             NaN             NaN             NaN
             NaN             NaN             NaN
             NaN             NaN             NaN
             NaN             NaN             NaN
             NaN             NaN             NaN
             NaN             NaN             NaN
             NaN             NaN             NaN
             NaN             NaN             NaN
             NaN             NaN             NaN
             NaN             NaN             NaN
             NaN             NaN             NaN
             NaN             NaN             NaN
             NaN             NaN             NaN
             NaN             NaN             NaN
             NaN             NaN             NaN
             NaN             NaN             NaN
             NaN             NaN             NaN
             NaN             NaN             NaN
             NaN             NaN             NaN
             NaN             NaN             NaN
             NaN             NaN             NaN
             NaN             NaN             NaN
             NaN             NaN             NaN
             NaN             NaN             NaN
             NaN             NaN             NaN
             NaN             NaN             NaN
             NaN             NaN             NaN
             NaN             NaN             NaN
             NaN             NaN             NaN
             NaN             NaN             NaN
             NaN             NaN             NaN
             NaN             NaN             NaN
             NaN             NaN             NaN
             NaN             NaN             NaN
             NaN             NaN             NaN
             NaN             NaN             NaN
             NaN             NaN             NaN
             NaN             NaN             NaN
             NaN             NaN             NaN
             NaN             NaN             NaN
             NaN             NaN             NaN
             NaN             NaN             NaN
             NaN             NaN             NaN
             NaN             NaN             NaN
             NaN             NaN             NaN
             NaN             NaN             NaN
             NaN             NaN             NaN
             NaN             NaN             NaN
             NaN             NaN             NaN
             NaN             NaN             NaN
             NaN             NaN             NaN
             NaN             NaN             NaN
             NaN             NaN             NaN
             NaN             NaN             NaN
             NaN             NaN             NaN
             NaN             NaN             NaN
             NaN             NaN             NaN
             NaN             NaN             NaN
             NaN             NaN             NaN
             NaN             NaN             NaN
             NaN             NaN             NaN
             NaN             NaN             NaN
             NaN             NaN             NaN
             NaN             NaN             NaN
             NaN             NaN             NaN
             NaN             NaN             NaN
             NaN             NaN             NaN
             NaN             NaN             NaN
             NaN             NaN             NaN
             NaN             NaN             NaN
             NaN             NaN             NaN
             NaN             NaN             NaN
             NaN             NaN             NaN
             NaN             NaN             NaN
             NaN             NaN             NaN
             NaN             NaN             NaN
             NaN             NaN             NaN
             NaN             NaN             NaN
             NaN             NaN             NaN
             NaN             NaN             NaN
             NaN             NaN             NaN
             NaN             NaN             NaN
             NaN             NaN             NaN
             NaN             NaN             NaN
             NaN             NaN             NaN
             NaN             NaN             NaN
             NaN             NaN             NaN
             NaN             NaN             NaN
             NaN             NaN             NaN
             NaN             NaN             NaN
             NaN             NaN             NaN
             NaN             NaN             NaN
             NaN             NaN             NaN
             NaN             NaN             NaN
             NaN             NaN             NaN
             NaN             NaN             NaN
             NaN             NaN             NaN
             NaN             NaN             NaN
             NaN             NaN             NaN
             NaN             NaN             NaN
             NaN             NaN             NaN
             NaN             NaN             NaN
             NaN             NaN             NaN
             NaN             NaN             NaN
             NaN             NaN             NaN
             NaN             NaN             NaN
             NaN             NaN             NaN
             NaN             NaN             NaN
             NaN             NaN             NaN
             NaN             NaN             NaN
             NaN             NaN             NaN
             NaN             NaN             NaN
             NaN             NaN             NaN
             NaN             NaN             NaN
             NaN             NaN             NaN
             NaN             NaN             NaN
             NaN             NaN             NaN
             NaN             NaN             NaN
             NaN             NaN             NaN
             NaN             NaN             NaN
             NaN             NaN             NaN
             NaN             NaN             NaN
             NaN             NaN             NaN
             NaN             NaN             NaN
             NaN             NaN             NaN
             NaN             NaN             NaN
             NaN             NaN             NaN
             NaN             NaN             NaN
             NaN             NaN             NaN
             NaN             NaN             NaN
             NaN             NaN             NaN
             NaN             NaN             NaN
             NaN             NaN             NaN
             NaN             NaN             NaN
             NaN             NaN             NaN
             NaN             NaN             NaN
             NaN             NaN             NaN
             NaN             NaN             NaN
             NaN             NaN             NaN
             NaN             NaN             NaN
             NaN             NaN             NaN
             NaN             NaN             NaN
             NaN             NaN             NaN
             NaN             NaN             NaN
             NaN             NaN             NaN
             NaN             NaN             NaN
             NaN             NaN             NaN
             NaN             NaN             NaN
             NaN             NaN             NaN
             NaN             NaN             NaN
             NaN             NaN             NaN
             NaN             NaN             NaN
             NaN             NaN             NaN
             NaN             NaN             NaN
             NaN             NaN             NaN
             NaN             NaN             NaN
             NaN             NaN             NaN
             NaN             NaN             NaN
             NaN             NaN             NaN
             NaN             NaN             NaN
             NaN             NaN             NaN
             NaN             NaN             NaN
             NaN             NaN             NaN
             NaN             NaN             NaN
             NaN             NaN             NaN
             NaN             NaN             NaN
             NaN             NaN             NaN
             NaN             NaN             NaN
             NaN             NaN             NaN
             NaN             NaN             NaN
             NaN             NaN             NaN
             NaN             NaN             NaN
             NaN             NaN             NaN
             NaN             NaN             NaN
             NaN             NaN             NaN
             NaN             NaN             NaN
             NaN             NaN             NaN
             NaN             NaN             NaN
             NaN             NaN             NaN
             NaN             NaN             NaN
             NaN             NaN             NaN
             NaN             NaN             NaN
             NaN             NaN             NaN
             NaN             NaN             NaN
             NaN             NaN             NaN
             NaN             NaN             NaN
             NaN             NaN             NaN
