Li   F 
    1.000000000000000     
  12.0789003372000003   0.0000000000000000   0.0000000000000000
   0.0000000000000000  12.0789003372000003   0.0000000000000000
   0.0000000000000000   0.0000000000000000  12.0789003372000003
Li   F 
108  108  
Direct
  0.0007776296797104  0.9993608833744290  0.9999646501375000  
  0.0009108984294031  0.0005070621658660  0.3264094575658020  
  0.0011182050059233  0.0001533169947976  0.6712282803065430  
  0.0008945088712622  0.3259080825263400  0.0002237843352333  
  0.0000021728590127  0.3263571958687520  0.3259865255736680  
  0.0021397517760065  0.3263580375639490  0.6738994447872100  
  0.0006180483601881  0.6710998822198140  0.9995472282928900  
  0.0022073392348290  0.6737846385533930  0.3271968336265660  
  0.0005285992677884  0.6733638769674710  0.6569190441383980  
  0.3294569219869250  0.9996317803369050  0.9997549895732190  
  0.3297020508164510  0.0001552588309792  0.3277709965956390  
  0.3299113124890520  0.0002734008636978  0.6716466227049050  
  0.3296161184341240  0.3275832204797520  0.0002470992668862  
  0.3416373576293100  0.3283534527195040  0.3284517028245450  
  0.3411510582047300  0.3288162627909590  0.6718084442028170  
  0.3288854499012860  0.6714689773391740  0.9999350387616630  
  0.3419904718916910  0.6716392122593650  0.3284585802301830  
  0.3295506891355660  0.6700770326471071  0.6701202947419490  
  0.6706138694359320  0.9991254381777780  0.9997295050854760  
  0.6719149741963620  0.9987483735684890  0.3277832118234090  
  0.6704090409698720  0.9998109388767060  0.6715370251717661  
  0.6720115949573040  0.3271596380909330  0.9983673807964880  
  0.6728547588914040  0.3286654975307500  0.3279636810065800  
  0.6729075694887360  0.3289734493831770  0.6703598779658790  
  0.6719368418213140  0.6714056571405680  0.9989379575823700  
  0.6724229592750109  0.6700838288833070  0.3286565895078940  
  0.6727020312031941  0.6713533525562740  0.6704068275403400  
  0.0003189259243399  0.1699012454586820  0.1700659128554850  
  0.0006487825919663  0.1698977787916360  0.4996105180913230  
  0.0008111113730465  0.1577809028779950  0.8293236347221790  
  0.0006113359152593  0.4995621627585510  0.1699045222542420  
  0.9720294126133741  0.4766332123490780  0.4769159352457140  
  0.0009039793495589  0.5001726140659810  0.8478638299831540  
  0.0007796251137435  0.8290317327787590  0.1580351855778660  
  0.0008564567607223  0.8489101816343020  0.4993870335080360  
  0.0002685249992993  0.8275911712140880  0.8277984326793730  
  0.3298048620645200  0.1703508641855650  0.1705425347910960  
  0.3415485934473210  0.1706256607094760  0.4998645203584640  
  0.3302101907798230  0.1703608462434690  0.8288224347002070  
  0.3415736491741870  0.4997416248812100  0.1707822770435140  
  0.3525554452664540  0.5002625737828270  0.5003295238460130  
  0.3459465085138970  0.4996280750213630  0.8469288575562640  
  0.3301848863909460  0.8286649791057740  0.1705482526688800  
  0.3460715491395310  0.8468973791165910  0.4996786206958750  
  0.3411638898922860  0.8286103934517540  0.8287043185954420  
  0.6715264560710850  0.1700475282278480  0.1701623859105580  
  0.6713290165763010  0.1591313129587350  0.4995840585580350  
  0.6719113240337220  0.1709338979446710  0.8288011732247470  
  0.6713871177242789  0.4995246440792730  0.1588688285882180  
  0.6720692532458090  0.4997463340455470  0.4997534119884930  
  0.6734225371986330  0.4993395555855290  0.8272454754388360  
  0.6719025597848330  0.8285400653412510  0.1710648594630580  
  0.6733504961504549  0.8272336814635750  0.4993442393771730  
  0.6717913000945470  0.8283233448844100  0.8283397487582180  
  0.1714600678562520  0.9996955909787030  0.1705700231479450  
  0.1734878012819790  0.0017039620272783  0.4996379708620470  
  0.1726181160129560  0.9989439449832820  0.8287951640930300  
  0.1724205339045710  0.3288888675253790  0.1708636855046850  
  0.1736966274035230  0.3206587496093290  0.5006906831700850  
  0.1717084523579050  0.3277741620431130  0.8288170596813980  
  0.1728214139850760  0.6704004980056130  0.1706498865065170  
  0.1745630256488230  0.6965272800241920  0.4987053435777970  
  0.1719489514260320  0.6711677127414570  0.8292245104610390  
  0.5003553975215670  0.9995717168223880  0.1704885666515920  
  0.5016938213204230  0.0002485177750131  0.4996752524742830  
  0.5006735858169830  0.0000889322611002  0.8286179068077570  
  0.5012778050774500  0.3277182192433510  0.1692878875936120  
  0.5030746642642900  0.3272687578885250  0.4996801014052180  
  0.5015678692646900  0.3275145411851310  0.8292726481954920  
  0.5010927325904930  0.6713317655619870  0.1582930081109810  
  0.5018700370982220  0.6715777368229040  0.4998752281526460  
  0.5013910165937930  0.6709474609750929  0.8282716655251220  
  0.8293094995620790  0.9992253214904280  0.1708350229648800  
  0.8289350431559230  0.0000766030979378  0.4990155536974830  
  0.8283563655212450  0.9993977729290440  0.8291051605543980  
  0.8291087410297210  0.3270604360255760  0.1578933742804840  
  0.8248305357132319  0.3239699296457200  0.4995841181755050  
  0.8426743848905290  0.3272488597550090  0.8292411833714650  
  0.8295300749735121  0.6707465999772571  0.1703514984060280  
  0.8489236268681920  0.6737815062048540  0.5009247292538030  
  0.8293867448329020  0.6723786644929109  0.8291539407774170  
  0.1714499764548520  0.1702526516585580  0.9998145861977360  
  0.1724244986299010  0.1708411886563110  0.3291051299070990  
  0.1729713206410320  0.1704190117046170  0.6706711923309360  
  0.1733549814952870  0.4995113852956910  0.0017027244871173  
  0.1737296520210450  0.5005218754400080  0.3208580535756340  
  0.1739523520923290  0.4988851315700840  0.6966047664424760  
  0.1725179096860000  0.8286025815569640  0.9990516836802850  
  0.1719275201700300  0.8289077451960130  0.3278557506616340  
  0.1726709412536560  0.8298832068348010  0.6713469612719790  
  0.5003520239646800  0.1701532644996320  0.9996955929535720  
  0.5012790398000040  0.1694439251813260  0.3278325641004830  
  0.5011920481076120  0.1697337945947200  0.6714440041087500  
  0.5017372898978540  0.4991140556676400  0.9999834758367850  
  0.5031067159589570  0.5000923885897630  0.3269490793122860  
  0.5018517830370970  0.5000459933813910  0.6716195686014790  
  0.5006869395357260  0.8292740562498651  0.9996995708973631  
  0.5016264649517480  0.8284003627931750  0.3272232646130530  
  0.5013220715617090  0.8285824624473720  0.6709829083552490  
  0.8292992503539980  0.1578747590035260  0.9994805391731990  
  0.8291540564063670  0.1695378112134730  0.3271080250491000  
  0.8294136821060500  0.1704869751442790  0.6710518159287200  
  0.8290830446953310  0.4997634979339910  0.9992999351099530  
  0.8248004159893800  0.4989146346398810  0.3234763945064290  
  0.8497843334534920  0.4998205653682600  0.6739714734500240  
  0.8284229062781280  0.8286882838152110  0.9994149032211010  
  0.8424855391364970  0.8286492343735430  0.3278012028011550  
  0.8280974707093161  0.8410714988781151  0.6719123253088030  
  0.0015643571475792  0.1623957473633690  0.0014395321840084  
  0.0036372565893288  0.1670495174115200  0.3312546910517040  
  0.0027752424603165  0.1656019444042020  0.6665867127471330  
  0.0021605509841294  0.4983231725891320  0.0032867188126176  
  0.0096404224576503  0.4984561517825060  0.3315742660417270  
  0.0269788931255661  0.4713742295236610  0.7037796982146530  
  0.0022165162221270  0.8313780729519070  0.9978183691444760  
  0.0033221745232481  0.8400876929530060  0.3204777656589930  
  0.0043492418286490  0.8362055675355220  0.6659592241388950  
  0.3335979382345760  0.1665201099867130  0.9998919795237530  
  0.3356559520483130  0.1682019403993710  0.3318337463059540  
  0.3371906460134970  0.1671243796011550  0.6669552213591460  
  0.3390129253341310  0.4990305869689420  0.0043125484848474  
  0.3350247016169870  0.4982007826136860  0.3363295949923570  
  0.3331814376799830  0.4991546094335180  0.6628028721788790  
  0.3350090145193650  0.8312270919516960  0.9989722561272880  
  0.3367436583176160  0.8328858381255980  0.3315158254577070  
  0.3368021079935770  0.8317907039421040  0.6668783822262090  
  0.6683779615245130  0.1650615836687880  0.9986187800091240  
  0.6680922434490740  0.1646617388413250  0.3303789558128260  
  0.6688598953558440  0.1652881644519370  0.6674232922023290  
  0.6686466840258800  0.4986477340032280  0.9977511616742940  
  0.6638995380369220  0.4995560588698000  0.3219187594639480  
  0.6730640203494080  0.4988256304942670  0.6662407162372970  
  0.6675743844229060  0.8314632039013720  0.9993858272245650  
  0.6705262450345230  0.8309417688192510  0.3308871565276090  
  0.6646116854582760  0.8367043846918700  0.6666660735985630  
  0.0017030275806960  0.0005987337215174  0.1642412986118490  
  0.0022462122402018  0.0039861163231336  0.4985073722265910  
  0.0019361421432720  0.9974993999368990  0.8316868569911550  
  0.0040367075619798  0.3311739657995360  0.1659906609741950  
  0.0091222804263040  0.3310688905979120  0.4980745596794590  
  0.0032402447902982  0.3182711074451210  0.8409087093169630  
  0.0027038903317305  0.6663986450504070  0.1661222107047280  
  0.0259480615855381  0.7037212475067069  0.4761445074548620  
  0.0035365663320874  0.6669684310580020  0.8329434172981390  
  0.3335981227190100  0.9993804558132880  0.1669110377934540  
  0.3389502573710530  0.0042225238260798  0.4990744230079260  
  0.3350351154120190  0.9987407543888480  0.8317812787457370  
  0.3356372594494700  0.3316365509166350  0.1683774639356270  
  0.3351766990812100  0.3363233534129010  0.4982269681510660  
  0.3368264260556230  0.3314430081429760  0.8332876996860250  
  0.3369338512847410  0.6666543265511610  0.1662936558146550  
  0.3333664589071430  0.6625541469774560  0.4991770391159490  
  0.3365790885250490  0.6667521544758440  0.8317204688426830  
  0.6682502447186640  0.9982134067679240  0.1665583601672300  
  0.6685928560872580  0.9984383694643379  0.4987413043271330  
  0.6678009694631440  0.9994786174573920  0.8319380962726440  
  0.6679072247380300  0.3302390983565930  0.1631580067694360  
  0.6639857711562270  0.3224117246064040  0.4998177457165480  
  0.6702730778614100  0.3307773934633720  0.8309890929897040  
  0.6689393315943020  0.6671639907309840  0.1640266714096300  
  0.6722033287075750  0.6662697720671820  0.4982981703520930  
  0.6660014834124300  0.6667665489635580  0.8342004730668290  
  0.1700289009866790  0.1679991892600510  0.1684085696168080  
  0.1723847099337660  0.1658880082186300  0.4985709538662140  
  0.1711040832162640  0.1649490817493060  0.8316398511452970  
  0.1723620942591850  0.4985641259129070  0.1661315004197800  
  0.9333487548987240  0.5721186151620760  0.5742182720591980  
  0.1825901801105660  0.5004127756301670  0.8460893021474830  
  0.1709286986969900  0.8311220286173649  0.1655915526218120  
  0.1823674786108570  0.8459444025915490  0.5002807099249860  
  0.1717373384154260  0.8307348147098990  0.8307737004738910  
  0.5008890007460490  0.1664336313831360  0.1667208888287060  
  0.5015576821235750  0.1659600946439350  0.4989697308513140  
  0.5014651812374500  0.1668197979194020  0.8317257172711900  
  0.5015843175314880  0.4990238604105390  0.1647689883437880  
  0.5060933343488830  0.4987192141881990  0.4991421273223650  
  0.5029626774092359  0.4982857307276230  0.8318957984169369  
  0.5013795528992731  0.8311858440989890  0.1658465101452150  
  0.5028637444974891  0.8319104223097180  0.4984767637125670  
  0.5022234850647180  0.8316290472454990  0.8316953066141510  
  0.8329738051828310  0.1637219735191520  0.1639009072107170  
  0.8342081214569600  0.1656106518822040  0.4985376310447410  
  0.8336685908201740  0.1632815173378290  0.8315654408401020  
  0.8342411962436390  0.4991166363853380  0.1639039267856290  
  0.8161810288069800  0.4684617726768680  0.4682779612972330  
  0.8362038973594320  0.4989288288484560  0.8344911391470829  
  0.8338378385726130  0.8309462593179689  0.1650766795270540  
  0.8363598877469730  0.8364600128855459  0.4976560224956470  
  0.8330529312901970  0.8369902294545920  0.8356942471244220  
  0.1694131703623330  0.9983209042131380  0.9989970849366830  
  0.1705175409101400  0.0010779410685373  0.3307018664100670  
  0.1703693314017580  0.0011004866343995  0.6678450121341800  
  0.1706207727547240  0.3302882111060870  0.0012884406796587  
  0.1715549537856020  0.3366567208947870  0.3367862686698120  
  0.1786541391720390  0.3290458607829410  0.6638007143329649  
  0.1697282198638130  0.6675991295227490  0.0009922642233136  
  0.1775370395961600  0.6638473385220250  0.3303258046968980  
  0.1692697740402590  0.6641113924913000  0.6628965010786489  
  0.5005507822122940  0.9988773146367150  0.9991838037218630  
  0.5015674396303920  0.9986581034841390  0.3314624492099940  
  0.5006243438395050  0.9996941518092090  0.6667190500707680  
  0.5015138240731930  0.3311113953463620  0.9987404752334540  
  0.5021596379186311  0.3312170381481750  0.3309321272920870  
  0.5021041632482190  0.3320940921785220  0.6671916869641880  
  0.5009698782984060  0.6664757391089040  0.9973659722836320  
  0.5022091010355330  0.6668329046147580  0.3314166883323750  
  0.5014776374431880  0.6661850422642960  0.6662165978310450  
  0.8327467974605161  0.9970560505226230  0.9995486776172200  
  0.8340751561247690  0.0003788357525067  0.3310157143659820  
  0.8334501067431650  0.0013750997314332  0.6666164267989810  
  0.8339908824610590  0.3299046486001340  0.9981347379106400  
  0.8357496520187840  0.3241995286514270  0.3203018643742010  
  0.8374747359517440  0.3305188387228600  0.6661628087386759  
  0.8338175924349260  0.6669629705130330  0.9990311482746680  
  0.8377396901330060  0.6656376170605680  0.3311710678544700  
  0.8229897735512710  0.6886521681924620  0.6797448495281840  
