Pd  C  O 
 1.0000000000000000
     8.3099002837999993    0.0000000000000000    0.0000000000000000
    -4.1549501418999997    7.1965847487000003    0.0000000000000000
     0.0000000000000000    0.0000000000000000   16.5235004425000014
  36   1   2
Selective dynamics
Cartesian
  8.2986369836878033 -0.0319294848177712  7.2740358378285723   T   T   T
 -0.0059831282043160  1.6069973743847230  2.6477257109062280   F   F   F
  1.3750092990497025  0.8063566593488702  4.9448238172430372   T   T   T
  2.7749385884596447 -0.0111571463635115  7.2601248279868598   T   T   T
  2.7639559333947092  1.6069973743847230  2.6477257109062280   F   F   F
  4.1428621701078114  0.7971018366194159  4.9214708497281752   T   T   T
  5.5272644461637039 -0.0085908298187739  7.2074564458376225   T   T   T
  5.5339780939965992  1.6069973743847230  2.6477257109062280   F   F   F
  6.9157816983222187  0.8020628835799907  4.9416964723365657   T   T   T
  6.8642711053615004  2.3723253540438916  7.2660703931479471   T   T   T
 -1.3909942085052609  4.0059069345163794  2.6477257109062280   F   F   F
 -0.0080737068545140  3.1946379843674961  4.9284381194040998   T   T   T
  1.3946383827860853  2.3655196492733910  7.4004624226704561   T   T   T
  1.3789448530937642  4.0059069345163794  2.6477257109062280   F   F   F
  2.7473561960313431  3.1910827008263212  4.9419280155770942   T   T   T
  4.1412955564015768  2.3932421781770787  7.1984141625346689   T   T   T
  4.1489670136956542  4.0059069345163794  2.6477257109062280   F   F   F
  5.5295045572280621  3.1942878038915561  4.9213285543538792   T   T   T
  5.5135755299848697  4.7791052689768279  7.1901496724964309   T   T   T
 -2.7759637393047738  6.4047445288005260  2.6477257109062280   F   F   F
 -1.3902288474432649  5.5984781706628421  4.9300170131540204   T   T   T
  0.0087936177565865  4.8261856613670622  7.2441818351167733   T   T   T
 -0.0060246777057485  6.4047445288005260  2.6477257109062280   F   F   F
  1.3705736386613572  5.5967427971996404  4.9286135442713119   T   T   T
  2.7721271277719346  4.7932288542165216  7.2007358521734774   T   T   T
  2.7639974828961416  6.4047445288005260  2.6477257109062280   F   F   F
  4.1428918417605596  5.6007106883872249  4.9164825841509820   T   T   T
  8.3039171555956539  0.0077723115286082  0.3861542053412234   F   F   F
  2.7639559333947390  0.0077723115286082  0.3861542053412234   F   F   F
  5.5339780939966285  0.0077723115286082  0.3861542053412234   F   F   F
  6.9189476247961403  2.4066099058127550  0.3861542053412234   F   F   F
  1.3789864025952261  2.4066099058127550  0.3861542053412234   F   F   F
  4.1490085631971159  2.4066099058127550  0.3861542053412234   F   F   F
  5.5339365444951953  4.8055194659444114  0.3861542053412234   F   F   F
 -0.0060246777057187  4.8055194659444114  0.3861542053412234   F   F   F
  2.7639974828961709  4.8055194659444114  0.3861542053412234   F   F   F
  1.4344964696384170  0.6685356347445600  9.3120209811367456   T   T   T
  0.1130229214354529  3.0070338832988646  9.2733195603938796   T   T   T
  1.5363174286702530  0.3121282507445227 10.4419293954832977   T   T   T
