Li   F 
    1.000000000000000     
  12.0789003372000003   0.0000000000000000   0.0000000000000000
   0.0000000000000000  12.0789003372000003   0.0000000000000000
   0.0000000000000000   0.0000000000000000  12.0789003372000003
Li   F 
108  108  
Direct
  0.9997023582116125  0.9998865831231324  0.9998575917686467  
  0.9998720536687993  0.0006066163103865  0.3266608048136994  
  0.9999657356299623  0.0002991281506453  0.6718893635277448  
  0.9998730254214073  0.3266873118217396  0.0005799644699332  
  0.9996466258647645  0.3264102323657108  0.3263843984745407  
  0.0009754304967080  0.3270585795943359  0.6741770396659111  
  0.9999611684479928  0.6719169842920354  0.0002684885627659  
  0.0009738862152197  0.6741978478071406  0.3270214735593123  
  0.9997248777019554  0.6716163692931846  0.6715829675576429  
  0.3286996884704080  0.9997321203059178  0.9997068873811761  
  0.3287550842552641  0.0002696124531583  0.3277020664734130  
  0.3289614475714152  0.0003440060727288  0.6715896613433197  
  0.3287562029521877  0.3277301318179283  0.0002459308734775  
  0.3291541586241026  0.3284924050418955  0.3284594725466171  
  0.3296841840256275  0.3290434375121433  0.6717126944896505  
  0.3289613077632798  0.6716206349877556  0.0003176121976215  
  0.3296833608850888  0.6717435234559208  0.3290047461837963  
  0.3285954198900491  0.6701944532924625  0.6701479779656400  
  0.6707014609894681  0.9996902505922055  0.9996642030695713  
  0.6706126031832156  0.9996850825533381  0.3282774502397610  
  0.6703145970658174  0.9997941234784737  0.6709201234563593  
  0.6706096260808342  0.3283088078914602  0.9996577444244173  
  0.6713319698193893  0.3286778950675041  0.3286399492596452  
  0.6716785258306734  0.3297619690624694  0.6699962284350321  
  0.6703244513815189  0.6709580483775714  0.9997610943203737  
  0.6716789447672276  0.6700430411418336  0.3297135553690337  
  0.6709483571630257  0.6707179160929928  0.6706738892204105  
  0.9996892192077874  0.1699301325969017  0.1698835254343032  
  0.9998111123633254  0.1700674811794085  0.4997312676706386  
  0.9997814301297505  0.1683958476178916  0.8295439517696404  
  0.9998101238608780  0.4997565633537209  0.1700231693536352  
  0.9717592461267729  0.4776325912897205  0.4776002114685585  
  0.9999217326213889  0.4991969002642989  0.8486840807246177  
  0.9997815565511278  0.8295815979984762  0.1683166402437408  
  0.9999199132843660  0.8487161236659201  0.4991767611929525  
  0.9995770614880501  0.8286974301024526  0.8286638970988909  
  0.3288820311109911  0.1704679732946103  0.1704301118316067  
  0.3296975291395346  0.1708424002830860  0.4997995186991423  
  0.3290622558969182  0.1705620433030469  0.8287883031290479  
  0.3296984095384941  0.4998253490676694  0.1708097185392095  
  0.3512630314665725  0.5004118034186323  0.5003841754342412  
  0.3449967573587052  0.4997363385625908  0.8470979697937867  
  0.3290615986646477  0.8288219304109872  0.1705232621792094  
  0.3449965497843008  0.8471226076213543  0.4997103587335300  
  0.3293062357201196  0.8288008114801317  0.8287688894768944  
  0.6705869262541365  0.1703581012056939  0.1703169460374782  
  0.6701715817339504  0.1693810246716509  0.4996351405047410  
  0.6705534713333513  0.1703942325844271  0.8286421279017115  
  0.6701718418520008  0.4996609823328885  0.1693232049420880  
  0.6708971159140508  0.4999095304773263  0.4998853970151943  
  0.6722853257957733  0.4999684418761662  0.8274804205997837  
  0.6705538560840724  0.8286770586821062  0.1703500887606595  
  0.6722862834871003  0.8275067334871200  0.4999426165865778  
  0.6708799267414116  0.8285405508362302  0.8285079159272243  
  0.1706018551687038  0.9998037755427893  0.1703459733117926  
  0.1725389693121513  0.0013932346821596  0.4996335590435117  
  0.1709838829647761  0.9998132278708864  0.8288863854013666  
  0.1707720611203212  0.3283860718636629  0.1699434222135202  
  0.1716166080267478  0.3214240164600757  0.5007467537574450  
  0.1706003593193545  0.3283492777996121  0.8296102984707660  
  0.1713742437959915  0.6713521558723035  0.1697129234200176  
  0.1728005007457288  0.6966973659680349  0.4994121520358134  
  0.1714948886904130  0.6706679231910025  0.8298379570776595  
  0.4997872061860877  0.9997387870163514  0.1705045933933868  
  0.5011247724928128  0.0011800415945068  0.4997041959783747  
  0.4998305877869155  0.9997323314616647  0.8285204596402713  
  0.4998021807144882  0.3284390136811640  0.1707164800545045  
  0.5007177213781518  0.3273475186741335  0.4996518178163024  
  0.5003253729242989  0.3277148702423802  0.8285380990322693  
  0.4998157097815112  0.6707053101178453  0.1707044393942679  
  0.5009083280604799  0.6716649163386920  0.4997016823554041  
  0.5002665893445939  0.6717216188917037  0.8286401530850533  
  0.8285920048376776  0.9997387614998076  0.1701290954215662  
  0.8275851706069647  0.0002602397014050  0.4995563401829019  
  0.8282475291301153  0.9998268931173503  0.8291280765110085  
  0.8283333707936853  0.3277166720484336  0.1688327264934477  
  0.8249528882280053  0.3250212507060255  0.4994718286221371  
  0.8295676886379646  0.3283320487793748  0.8289020232480478  
  0.8286893882827641  0.6709695791616572  0.1704461406547466  
  0.8499328548151084  0.6734511499647107  0.5007446240019600  
  0.8276755594254899  0.6718949397191484  0.8314708237927220  
  0.1706031861835892  0.1703861941053606  0.9997787397866350  
  0.1707721707092581  0.1699847587510786  0.3283527547955442  
  0.1713751634315019  0.1697683472156437  0.6713182913323812  
  0.1725394619234587  0.4996582899640155  0.0013638351884700  
  0.1716151855446680  0.5007743098909168  0.3213851904451842  
  0.1728018859459312  0.4994329836946979  0.6966592885302839  
  0.1709863216428986  0.8289208857559317  0.9997863830845543  
  0.1705943513837189  0.8296435638827916  0.3283155430754207  
  0.1714938925035122  0.8298836681655393  0.6706277776434663  
  0.4997870449585110  0.1705440644733124  0.9997133725225299  
  0.4998025284429289  0.1707522655023524  0.3284064628321334  
  0.4998154549702947  0.1707421348763296  0.6706664847077088  
  0.5011237460759854  0.4997301065052034  0.0011547635491762  
  0.5007202569748205  0.4996780159525372  0.3273201651263254  
  0.5009075157444354  0.4997297780457183  0.6716334713179264  
  0.4998304095158663  0.8285514954747374  0.9997062187035654  
  0.5003253009711005  0.8285709792806105  0.3276863087772885  
  0.5002666253304454  0.8286735230338906  0.6716916171684546  
  0.8285910629574346  0.1701709847710398  0.9997112739197177  
  0.8283333464953727  0.1689032796606782  0.3276857779672865  
  0.8286877588519168  0.1704894568251963  0.6709328741378692  
  0.8275868149309539  0.4995886009338839  0.0002291461332874  
  0.8249526440113998  0.4994938914986927  0.3249876982635975  
  0.8499421191334465  0.5007580562784616  0.6734172727990205  
  0.8282466986082143  0.8291581812841571  0.9997930647756309  
  0.8295738523828788  0.8289361388646060  0.3282993034531352  
  0.8276751765869872  0.8316077396524800  0.6718622196402887  
  0.9999348064634087  0.1650337065217183  0.0017229917674752  
  0.0015185237140356  0.1672873261205788  0.3314950166841969  
  0.0005572358552085  0.1671010081740314  0.6668644886943825  
  0.0001480209685820  0.4992146645766419  0.0042101420483154  
  0.0071095372005400  0.4983215211134842  0.3317753185539096  
  0.0251691026192357  0.4724932812864844  0.7049093565647337  
  0.0002548167508694  0.8319482764932178  0.9997795302265312  
  0.9989517811646242  0.8420207151949994  0.3220773140652393  
  0.0015947663236491  0.8344282573003542  0.6671276790151219  
  0.3318785642469632  0.1669415184611261  0.9996568015865864  
  0.3312455910309161  0.1685115029309863  0.3318139824308476  
  0.3327687899120507  0.1675183518033120  0.6668322982307987  
  0.3360696333980144  0.4991282086353835  0.0046232336274709  
  0.3286957874620137  0.4985054828395962  0.3371863158011923  
  0.3295410567544770  0.4991837593829239  0.6626065646193806  
  0.3319296020134189  0.8317002663109948  0.9992295137711458  
  0.3337495270237928  0.8331423755501968  0.3318132878113258  
  0.3338274775692859  0.8320861748652897  0.6669154128047770  
  0.6665140826163705  0.1670197117230633  0.9989967531203030  
  0.6661327043994762  0.1665269123244350  0.3309958082382183  
  0.6670983771770230  0.1671587694224305  0.6670476716068491  
  0.6667481492644690  0.4988561149906022  0.0004474255451431  
  0.6622432355761381  0.4995440725740420  0.3256090131973663  
  0.6697182819708710  0.4986547742997909  0.6665521629229466  
  0.6663563356753527  0.8317138389784263  0.9998231249233268  
  0.6675263274493382  0.8312271731528169  0.3313639263960377  
  0.6635547993945579  0.8352173385791396  0.6669555351213382  
  0.9999353576946054  0.0017971773076296  0.1649598641894826  
  0.0001495725839244  0.0042695826677924  0.4991437514530522  
  0.0002531709103763  0.9998549422070940  0.8318839089251171  
  0.0015201703591079  0.3315649470956572  0.1672191225327923  
  0.0071164725792461  0.3318284179735366  0.4982431562785650  
  0.9989505583750663  0.3221618699823717  0.8419623527287893  
  0.0005547488299630  0.6669297034606252  0.1670259358859042  
  0.0251700850616420  0.7049688772724260  0.4724286929669094  
  0.0015872936753364  0.6671959134582712  0.8343458146403169  
  0.3318788454093356  0.9997285868346653  0.1668723748058525  
  0.3360694833506239  0.0046789708806414  0.4990561540584575  
  0.3319277976090798  0.9993036739073509  0.8316368270664862  
  0.3312454620409760  0.3318805155351254  0.1684455619232741  
  0.3286940148094966  0.3372547156733691  0.4984281194935526  
  0.3337504708294486  0.3318870689899280  0.8330763923845459  
  0.3327705186610257  0.6669005127896801  0.1674455406797053  
  0.3295467173616363  0.6626927602809241  0.4991070426161394  
  0.3338265834938633  0.6669811653524621  0.8320126071469828  
  0.6665139279030343  0.9990720800965758  0.1669482193600024  
  0.6667471944926432  0.0005293140998782  0.4987865752052603  
  0.6663570063247852  0.9999043728943749  0.8316440804642083  
  0.6661313626453498  0.3310656504311129  0.1664481434612604  
  0.6622393145701074  0.3256816663097306  0.4994758354577442  
  0.6675250923286706  0.3314366696330732  0.8311562716121418  
  0.6670987966019660  0.6671164733038802  0.1670802589347104  
  0.6697130486903881  0.6666172997449202  0.4985763754977171  
  0.6635650353736039  0.6670240211486476  0.8351274406501118  
  0.1679603132115779  0.1681249820265328  0.1680559303432322  
  0.1687069434225784  0.1662944632733331  0.4984962533908254  
  0.1686121424759253  0.1668489930542158  0.8318061764425295  
  0.1687063795054947  0.4985665419731199  0.1662304085233867  
  0.9375480784255348  0.5753380903116619  0.5752852136598761  
  0.1803626319479878  0.5006290660526171  0.8462326371661161  
  0.1686135699812059  0.8318744549578048  0.1667696935006094  
  0.1803615348432324  0.8462875343798816  0.5005568771228311  
  0.1682668408896635  0.8310001169787504  0.8309319836104799  
  0.4986577998003110  0.1671542131439550  0.1670844325236004  
  0.4974595053559551  0.1676686806081623  0.4990130835259073  
  0.4993132648882315  0.1671247166426844  0.8313447327700597  
  0.4974620139947271  0.4990827934072190  0.1676024221276116  
  0.5034652661355199  0.4991846790722325  0.4991119746595422  
  0.5010232972239250  0.4987905507817925  0.8323013653948783  
  0.4993146486416598  0.8314127083613400  0.1670545514698628  
  0.5010271294376523  0.8323677325176007  0.4987160184087354  
  0.4987905375850515  0.8319331408890901  0.8318685945959916  
  0.8313195285025533  0.1657432818586692  0.1656667228255312  
  0.8325146698435745  0.1670444114060263  0.4989955899852765  
  0.8308802221719349  0.1661486095519371  0.8313832934639765  
  0.8325133346368964  0.4990693330780059  0.1669709499279998  
  0.8161325623846896  0.4716517673348515  0.4716026259112369  
  0.8332164046150476  0.4989549243831936  0.8351642783420550  
  0.8308775337361822  0.8314512764073971  0.1660716103331146  
  0.8332165508792304  0.8352501155848248  0.4988664711982284  
  0.8319010349301242  0.8358379829585731  0.8357590590508892  
  0.1677935877004572  0.9990377829067085  0.9989636777465506  
  0.1684819246897004  0.0013812452690142  0.3308311681863913  
  0.1681225612024737  0.0012099801447982  0.6678257354218894  
  0.1684833577403748  0.3308991512174572  0.0013092658690317  
  0.1674762404431795  0.3362581677547771  0.3361869073684242  
  0.1733950285758040  0.3288187254037990  0.6642129517040140  
  0.1681208278757680  0.6678925692943781  0.0011346988324152  
  0.1733927577087586  0.6642780365806358  0.3287405231885366  
  0.1672838995401004  0.6648440930607293  0.6647710904897425  
  0.4990143326707120  0.9993853266291168  0.9993127567538667  
  0.4992753924373273  0.9992643250316697  0.3315233378072382  
  0.4986148699244025  0.9999957408261450  0.6666449513663245  
  0.4992720432483851  0.3315912896080258  0.9991904479119914  
  0.4972438442436957  0.3319864925730554  0.3319186068388008  
  0.4979606377880414  0.3326460396491319  0.6668139000987987  
  0.4986206347504101  0.6667093679161760  0.9999170331043830  
  0.4979635994401666  0.6668814598197712  0.3325726113176810  
  0.4987298038601799  0.6661954652560440  0.6661261596721215  
  0.8312232978913157  0.9997239306584368  0.9996511990242083  
  0.8310725693943103  0.0009297706351877  0.3312996904466869  
  0.8319265312212643  0.0001871237840715  0.6668857885732707  
  0.8310723749702010  0.3313718770985870  0.0008484119366603  
  0.8340456131590405  0.3250401640253265  0.3249589804075140  
  0.8347752961282789  0.3316507377592728  0.6659154569245065  
  0.8319269919423746  0.6669551242549957  0.0001007779638756  
  0.8347723199654918  0.6659809478233178  0.3315827191232272  
  0.8204543591757323  0.6825244907417986  0.6823856449358486  
