Ni   S                                  
   1.00000000000000     
    20.0000000000000000    0.0000000000000000    0.0000000000000000
     0.0000000000000000   20.0000000000000000    0.0000000000000000
     0.0000000000000000    0.0000000000000000   20.0000000000000000
   Ni   S 
    55     1
Direct
  0.3503512510297896  0.5950815999665721  0.4102802700662128
  0.4511912828075700  0.6627255640208799  0.3777606562080116
  0.4125817159995771  0.6624283246271974  0.4970484117296192
  0.5131372183439059  0.7229153838563823  0.4640237765828625
  0.5151414397452942  0.6079647059917752  0.4635769558502871
  0.5773183284252460  0.6649114267562963  0.3781393540308580
  0.6155823740364106  0.6651193312973812  0.4972526401932414
  0.3174931517394102  0.5924398265271534  0.5273811311429294
  0.3503484838437480  0.4885406773052138  0.5808214384947145
  0.4161755430062870  0.5425425094319027  0.4966384171185443
  0.4123965694564866  0.5970168301980817  0.6043336006467933
  0.5137457455603235  0.6638854684375937  0.5700334005940890
  0.5154389201960800  0.5434331396271035  0.5693511115689539
  0.6150528719150403  0.5438535929129478  0.4963889591416118
  0.6165986412170776  0.5992834366251375  0.6035940892010035
  0.3931855494243285  0.5935850036669028  0.2961501648787284
  0.3520192091690890  0.4893351688450659  0.3439192012595085
  0.4536095788730625  0.4905845393707751  0.2708446662665457
  0.4537216332659051  0.5421745277523814  0.3795349186077830
  0.5150674915280716  0.5981316215435357  0.2914816625592993
  0.5167073698228141  0.4386428124372304  0.3594081151279995
  0.5792644190293041  0.4920685593167805  0.2709710314312302
  0.5770294908254309  0.5441784488241004  0.3793722151220357
  0.3126277486306082  0.4880608408176017  0.4632498171440826
  0.3515501350835927  0.3816318621429120  0.5142996788284585
  0.4169016282532662  0.4371350454416698  0.4321926753686441
  0.4541531276104596  0.4371217590464014  0.5490803099551985
  0.5160570904641281  0.4908096173375064  0.4645809414566135
  0.5177957689758236  0.3738006194222316  0.4635480252101105
  0.6162866023315996  0.4400852139344233  0.4317488600250903
  0.5765528989316946  0.4385888909312587  0.5502495673925452
  0.6792971908702413  0.5997464251206466  0.4111162790723070
  0.7117906470910252  0.5962987061235178  0.5284640837034917
  0.6794830429319911  0.4925030188879915  0.5838217909698830
  0.6367971950555529  0.5963442281750004  0.2967706869367008
  0.6807645834343906  0.4931565467069831  0.3451644788174868
  0.7195636506510523  0.4928146368271916  0.4644859435976642
  0.6800879432792963  0.3859312656829909  0.5179129902081919
  0.4525014938667840  0.4956465141371886  0.6611134076099913
  0.5155571084297328  0.5976786024067245  0.6707951076180133
  0.5791975857202923  0.4931844784154126  0.6573310855988814
  0.3892501903495458  0.3817851609485025  0.6281346370486467
  0.4542818901130005  0.3174935064276923  0.5483934609076021
  0.5141992900256959  0.3853879134034113  0.6451971597960721
  0.5785832061811346  0.3188662982135192  0.5524086298174158
  0.6376796200969619  0.3883976452396655  0.6323382790485985
  0.4163065567088937  0.3832964134410038  0.3235158485395567
  0.5178503914418797  0.3876771495821181  0.2563682577830736
  0.6189505367135784  0.3855532992757707  0.3243301904159981
  0.3200250266746613  0.3852404314140092  0.3967956062698403
  0.4161768133822751  0.3165639205040409  0.4299296106316411
  0.5176105520331942  0.3183765664667320  0.3567408358385464
  0.6196427117254899  0.3195016149585498  0.4311843846082571
  0.7144430090047598  0.3895086087611098  0.4004026594348409
  0.5191268663530915  0.2591725377432744  0.4633429220394436
  0.4338000692914592  0.4092890326737411  0.7182829181009686
 
             NaN             NaN             NaN
             NaN             NaN             NaN
             NaN             NaN             NaN
             NaN             NaN             NaN
             NaN             NaN             NaN
             NaN             NaN             NaN
             NaN             NaN             NaN
             NaN             NaN             NaN
             NaN             NaN             NaN
             NaN             NaN             NaN
             NaN             NaN             NaN
             NaN             NaN             NaN
             NaN             NaN             NaN
             NaN             NaN             NaN
             NaN             NaN             NaN
             NaN             NaN             NaN
             NaN             NaN             NaN
             NaN             NaN             NaN
             NaN             NaN             NaN
             NaN             NaN             NaN
             NaN             NaN             NaN
             NaN             NaN             NaN
             NaN             NaN             NaN
             NaN             NaN             NaN
             NaN             NaN             NaN
             NaN             NaN             NaN
             NaN             NaN             NaN
             NaN             NaN             NaN
             NaN             NaN             NaN
             NaN             NaN             NaN
             NaN             NaN             NaN
             NaN             NaN             NaN
             NaN             NaN             NaN
             NaN             NaN             NaN
             NaN             NaN             NaN
             NaN             NaN             NaN
             NaN             NaN             NaN
             NaN             NaN             NaN
             NaN             NaN             NaN
             NaN             NaN             NaN
             NaN             NaN             NaN
             NaN             NaN             NaN
             NaN             NaN             NaN
             NaN             NaN             NaN
             NaN             NaN             NaN
             NaN             NaN             NaN
             NaN             NaN             NaN
             NaN             NaN             NaN
             NaN             NaN             NaN
             NaN             NaN             NaN
             NaN             NaN             NaN
             NaN             NaN             NaN
             NaN             NaN             NaN
             NaN             NaN             NaN
             NaN             NaN             NaN
             NaN             NaN             NaN
