Ni   S 
   1.00000000000000     
  20.0000000000000000   0.0000000000000000   0.0000000000000000
   0.0000000000000000  20.0000000000000000   0.0000000000000000
   0.0000000000000000   0.0000000000000000  20.0000000000000000
Ni   S 
55  1  
Direct
  0.3500029296719450  0.5960221592324900  0.4103069304817310  
  0.4513794479479710  0.6631997553073460  0.3775194152027770  
  0.4118247021903160  0.6627100998462860  0.4970517747771480  
  0.5128350214685820  0.7234786148994700  0.4644859162140730  
  0.5146293321809670  0.6085819872079550  0.4644279050567730  
  0.5770151845778320  0.6650698020059810  0.3778641959683850  
  0.6156712563458560  0.6653118136117160  0.4970273988641480  
  0.3165922145266290  0.5926928175274920  0.5278901721656200  
  0.3503214934847210  0.4884271742889790  0.5829829212811790  
  0.4149410905357980  0.5424825658805470  0.4965420112133780  
  0.4126793542726900  0.5962337938780000  0.6044767095242490  
  0.5136379584225710  0.6634834862150070  0.5712901536864901  
  0.5145396877785160  0.5429034050447260  0.5703807205940310  
  0.6153346330588360  0.5446174915108700  0.4969964741688030  
  0.6159991911369860  0.5987161286823121  0.6044631206944120  
  0.3926621945593140  0.5938018273833380  0.2955587344268550  
  0.3518031031304790  0.4890181117108980  0.3441751152261790  
  0.4538971770894380  0.4909295749055150  0.2701279535359330  
  0.4535213157715820  0.5427411565027210  0.3789069979450300  
  0.5151714445151400  0.5979688142507270  0.2909437875909620  
  0.5165993321557990  0.4384339594395210  0.3587629135001360  
  0.5791488391861530  0.4922885382388530  0.2705969367021410  
  0.5775167980345020  0.5445127891215410  0.3792621793206620  
  0.3125013838137390  0.4878810641126140  0.4641272548930000  
  0.3521036782871360  0.3811479695536160  0.5171468940822950  
  0.4162707956387950  0.4366556934061660  0.4322276930952430  
  0.4548859193966810  0.4374150586795270  0.5499637363536680  
  0.5158473349644130  0.4906848817849220  0.4646203126706040  
  0.5175268087897680  0.3728267607587980  0.4638377114925090  
  0.6169247137130330  0.4394644063427650  0.4317079654037390  
  0.5781170831946409  0.4382128273550590  0.5499469156093890  
  0.6795861502958050  0.6000292207319620  0.4110388224062550  
  0.7122527953492510  0.5968844831747619  0.5290527191205210  
  0.6803726142404400  0.4923252464765890  0.5838619491017810  
  0.6373940236907600  0.5967743357589580  0.2961239880599820  
  0.6809387054837470  0.4931505523626000  0.3445596748979510  
  0.7195787566501080  0.4933449686216420  0.4639971300662540  
  0.6817656081957471  0.3856625816230090  0.5175973611939070  
  0.4524236556821750  0.4916281044089890  0.6632060664676520  
  0.5147337388769980  0.5962489542065940  0.6725038115317760  
  0.5795553664439340  0.4918242869320220  0.6573914642354810  
  0.3931344981924030  0.3837649345543000  0.6329718601133150  
  0.4545280945432140  0.3170049967741020  0.5496242045626260  
  0.5190255786333960  0.3812221300414720  0.6408482282761480  
  0.5806304490441220  0.3180967605828260  0.5508189455502120  
  0.6407722976397850  0.3872376051884810  0.6319935722139290  
  0.4157392624576560  0.3830848596355380  0.3236067989491640  
  0.5173889878484700  0.3873144311380730  0.2556014982241240  
  0.6191790831974801  0.3857133085463640  0.3238403277324200  
  0.3195111138505880  0.3846813093560970  0.3982719831641500  
  0.4161655659826310  0.3165683117044370  0.4309614375212690  
  0.5181736209232780  0.3179307491251890  0.3564743973825840  
  0.6198620463250680  0.3189599104100150  0.4304037449980460  
  0.7153298069354360  0.3891971207281130  0.3998265886871410  
  0.5192069572797920  0.2580399161299310  0.4632346252477790  
  0.4335248842302310  0.4114746899355310  0.7168681508873290  
