Ni   S                                  
   1.00000000000000     
    20.0000000000000000    0.0000000000000000    0.0000000000000000
     0.0000000000000000   20.0000000000000000    0.0000000000000000
     0.0000000000000000    0.0000000000000000   20.0000000000000000
   Ni   S 
    55     1
Direct
  0.3505955475968818  0.5950176089511885  0.4108654301840176
  0.4509071897431127  0.6629497268210258  0.3776512067982480
  0.4128411010614172  0.6620823007128678  0.4977039969477559
  0.5130719138215412  0.7226913701505140  0.4638775113283415
  0.5148524583544898  0.6079611205798656  0.4632250167826300
  0.5772452716256709  0.6649514905778204  0.3780087456486427
  0.6156608262299841  0.6650052975196630  0.4973667430183895
  0.3178274770107947  0.5918878091730946  0.5282260281518560
  0.3516011497531650  0.4883284730199833  0.5849031987610260
  0.4160308373954180  0.5419047194665367  0.4970116039349719
  0.4138130539133016  0.5972756127611447  0.6041324331313120
  0.5143127826176013  0.6641008709260134  0.5701123955547658
  0.5155061470689120  0.5434542306871535  0.5691920710935534
  0.6153703572071834  0.5442461839180552  0.4958164277134713
  0.6170139849069685  0.5990978839296233  0.6033270518941691
  0.3930306506149819  0.5933623870700657  0.2964112916205366
  0.3519596534858351  0.4891979134549231  0.3443223828279045
  0.4533545047504788  0.4904631205954857  0.2706860647085847
  0.4539710521807550  0.5423069642416891  0.3793470272311978
  0.5150351833524596  0.5981018148046644  0.2914991842481527
  0.5168758839805960  0.4387482715863484  0.3592395068233856
  0.5791852338202901  0.4921183922615953  0.2708148734414451
  0.5772913879663193  0.5441771548768415  0.3792305973293750
  0.3130823401179086  0.4877169638915149  0.4649017855172843
  0.3529445818438148  0.3809987816636635  0.5150822488096125
  0.4171647132869722  0.4372844093571047  0.4316840853343180
  0.4546158491617973  0.4369098720880515  0.5490446894185510
  0.5161022317190671  0.4910005533933699  0.4643962695305675
  0.5174893251880448  0.3737722247637052  0.4640145622507674
  0.6161336831937874  0.4396138400595788  0.4315486703923739
  0.5779517633185023  0.4393509321437890  0.5491375133864196
  0.6793799450539950  0.6001161716903312  0.4110112168932645
  0.7122478648574813  0.5964795416420117  0.5282163331240426
  0.6797894908164821  0.4930149170693454  0.5838670022183621
  0.6369358624285724  0.5963856709409399  0.2967887308450727
  0.6807133661188018  0.4931316014129692  0.3448377864401024
  0.7193476588911594  0.4927800878374313  0.4643285131818544
  0.6810062192422492  0.3856862423736303  0.5173586315826029
  0.4549796636747416  0.4950344148859358  0.6620022515100672
  0.5167936069827164  0.5973855608692844  0.6710917234137455
  0.5793103466584810  0.4924313541897547  0.6574103204995012
  0.3919979480264928  0.3781096143907305  0.6278335707223590
  0.4556513452542461  0.3159970596880797  0.5481662449439355
  0.5164523148279017  0.3839680980495785  0.6379940482028985
  0.5799975968538362  0.3186529106058700  0.5508347735718289
  0.6389684768830790  0.3884996800950518  0.6316789489690251
  0.4163441289814216  0.3827804823042129  0.3238475889274639
  0.5177704614655454  0.3879447014713406  0.2563986916865062
  0.6192041289311092  0.3854163016648258  0.3240705256330543
  0.3202520810917235  0.3851803134161358  0.3981175626944164
  0.4166020565111594  0.3161816893850826  0.4295811849673399
  0.5179366450325986  0.3184645034756670  0.3565365348660237
  0.6199866358762947  0.3194232672565391  0.4306112064885141
  0.7146374010208092  0.3896007185072108  0.4000672855197109
  0.5198739800685175  0.2587621627205223  0.4622970239216428
  0.3962665550796842  0.4299480850254085  0.7162735268492781
 
  0.00000000E+00  0.00000000E+00  0.00000000E+00
  0.00000000E+00  0.00000000E+00  0.00000000E+00
  0.00000000E+00  0.00000000E+00  0.00000000E+00
  0.00000000E+00  0.00000000E+00  0.00000000E+00
  0.00000000E+00  0.00000000E+00  0.00000000E+00
  0.00000000E+00  0.00000000E+00  0.00000000E+00
  0.00000000E+00  0.00000000E+00  0.00000000E+00
  0.00000000E+00  0.00000000E+00  0.00000000E+00
  0.00000000E+00  0.00000000E+00  0.00000000E+00
  0.00000000E+00  0.00000000E+00  0.00000000E+00
  0.00000000E+00  0.00000000E+00  0.00000000E+00
  0.00000000E+00  0.00000000E+00  0.00000000E+00
  0.00000000E+00  0.00000000E+00  0.00000000E+00
  0.00000000E+00  0.00000000E+00  0.00000000E+00
  0.00000000E+00  0.00000000E+00  0.00000000E+00
  0.00000000E+00  0.00000000E+00  0.00000000E+00
  0.00000000E+00  0.00000000E+00  0.00000000E+00
  0.00000000E+00  0.00000000E+00  0.00000000E+00
  0.00000000E+00  0.00000000E+00  0.00000000E+00
  0.00000000E+00  0.00000000E+00  0.00000000E+00
  0.00000000E+00  0.00000000E+00  0.00000000E+00
  0.00000000E+00  0.00000000E+00  0.00000000E+00
  0.00000000E+00  0.00000000E+00  0.00000000E+00
  0.00000000E+00  0.00000000E+00  0.00000000E+00
  0.00000000E+00  0.00000000E+00  0.00000000E+00
  0.00000000E+00  0.00000000E+00  0.00000000E+00
  0.00000000E+00  0.00000000E+00  0.00000000E+00
  0.00000000E+00  0.00000000E+00  0.00000000E+00
  0.00000000E+00  0.00000000E+00  0.00000000E+00
  0.00000000E+00  0.00000000E+00  0.00000000E+00
  0.00000000E+00  0.00000000E+00  0.00000000E+00
  0.00000000E+00  0.00000000E+00  0.00000000E+00
  0.00000000E+00  0.00000000E+00  0.00000000E+00
  0.00000000E+00  0.00000000E+00  0.00000000E+00
  0.00000000E+00  0.00000000E+00  0.00000000E+00
  0.00000000E+00  0.00000000E+00  0.00000000E+00
  0.00000000E+00  0.00000000E+00  0.00000000E+00
  0.00000000E+00  0.00000000E+00  0.00000000E+00
  0.00000000E+00  0.00000000E+00  0.00000000E+00
  0.00000000E+00  0.00000000E+00  0.00000000E+00
  0.00000000E+00  0.00000000E+00  0.00000000E+00
  0.00000000E+00  0.00000000E+00  0.00000000E+00
  0.00000000E+00  0.00000000E+00  0.00000000E+00
  0.00000000E+00  0.00000000E+00  0.00000000E+00
  0.00000000E+00  0.00000000E+00  0.00000000E+00
  0.00000000E+00  0.00000000E+00  0.00000000E+00
  0.00000000E+00  0.00000000E+00  0.00000000E+00
  0.00000000E+00  0.00000000E+00  0.00000000E+00
  0.00000000E+00  0.00000000E+00  0.00000000E+00
  0.00000000E+00  0.00000000E+00  0.00000000E+00
  0.00000000E+00  0.00000000E+00  0.00000000E+00
  0.00000000E+00  0.00000000E+00  0.00000000E+00
  0.00000000E+00  0.00000000E+00  0.00000000E+00
  0.00000000E+00  0.00000000E+00  0.00000000E+00
  0.00000000E+00  0.00000000E+00  0.00000000E+00
  0.00000000E+00  0.00000000E+00  0.00000000E+00
