 ALGO = FAST ! algorithm for the SCF loop
 LREAL = AUTO
EDDIFG = -0.01
 IBRION = 3  
 POTIM = 0.0
 IOPT = 2
 NSW = 2    
 ISIF   = 2 
 ISYM = 0



NCORE = 9
