Cu  O                                   
   1.00000000000000     
     4.4270852866191799   -2.5559788819550100    0.0000000000000000
     0.0000000000000000    5.1119577639100298    0.0000000000000000
     0.0000000000000000    0.0000000000000000   15.0000000000000000
   Cu   O 
    16     1
Selective dynamics
Direct
  0.0000000000000000  0.0000000000000000  0.0000000000000000   F   F   F
  0.8333269190809293  0.6666609341546991  0.2824757638952152   T   T   T
  0.5110182534781091  0.5055044837611823  0.4213746159247198   T   T   T
  0.5000000000000000  0.5000000000000000  0.0000000000000000   F   F   F
  0.1666666666666643  0.8333333333333357  0.1391298678693147   F   F   F
  0.3322806929490527  0.6645658221727353  0.2767909929849767   T   T   T
  0.9944857682325001  0.5055081920622906  0.4213753247682568   T   T   T
  0.6666666666666643  0.8333333333333357  0.1391298678693147   F   F   F
  0.0000000000000000  0.5000000000000000  0.0000000000000000   F   F   F
  0.8354345509717086  0.1677159439424332  0.2767915432755330   T   T   T
  0.5000015885849858 -0.0000016966875917  0.4090572176396529   T   T   T
  0.5000000000000000  0.0000000000000000  0.0000000000000000   F   F   F
  0.1666666666666643  0.3333333333333357  0.1391298678693147   F   F   F
  0.3322767569511759  0.1677162230279129  0.2767911595601927   T   T   T
  0.9945024461880422  0.9890012014463823  0.4213794890114980   T   T   T
  0.6666666666666643  0.3333333333333357  0.1391298678693147   F   F   F
  0.1666776381519446  0.3333542220636491  0.4956796891277283   T   T   T
 
  0.00000000E+00  0.00000000E+00  0.00000000E+00
  0.00000000E+00  0.00000000E+00  0.00000000E+00
  0.00000000E+00  0.00000000E+00  0.00000000E+00
  0.00000000E+00  0.00000000E+00  0.00000000E+00
  0.00000000E+00  0.00000000E+00  0.00000000E+00
  0.00000000E+00  0.00000000E+00  0.00000000E+00
  0.00000000E+00  0.00000000E+00  0.00000000E+00
  0.00000000E+00  0.00000000E+00  0.00000000E+00
  0.00000000E+00  0.00000000E+00  0.00000000E+00
  0.00000000E+00  0.00000000E+00  0.00000000E+00
  0.00000000E+00  0.00000000E+00  0.00000000E+00
  0.00000000E+00  0.00000000E+00  0.00000000E+00
  0.00000000E+00  0.00000000E+00  0.00000000E+00
  0.00000000E+00  0.00000000E+00  0.00000000E+00
  0.00000000E+00  0.00000000E+00  0.00000000E+00
  0.00000000E+00  0.00000000E+00  0.00000000E+00
  0.00000000E+00  0.00000000E+00  0.00000000E+00
