SYSTEM = TS  
PREC = Normal               
ENCUT = 500                   
EDIFF = 1E-7             
ISMEAR = 0                    
SIGMA = 0.01                  
ALGO = Normal                  
ISIF = 2 
ISYM = 0                    
LWAVE = .FALSE.
LCHARG = .FALSE. 
IBRION = 2
NSW = 600 
LREAL= Auto
NCORE = 4 
KPAR=1
LPLANE = .TRUE.  

