Cu  O                                   
   1.00000000000000     
     4.4270852866191799   -2.5559788819550100    0.0000000000000000
     0.0000000000000000    5.1119577639100298    0.0000000000000000
     0.0000000000000000    0.0000000000000000   15.0000000000000000
   Cu   O 
    16     1
Selective dynamics
Direct
  0.0000000000000000  0.0000000000000000  0.0000000000000000   F   F   F
  0.8333333333333357  0.6666666666666643  0.2830114390050514   T   T   T
  0.5112765922485514  0.5056383011242760  0.4221594335294492   T   T   T
  0.5000000000000000  0.5000000000000000  0.0000000000000000   F   F   F
  0.1666666666666643  0.8333333333333357  0.1391298678693147   F   F   F
  0.3321864719563719  0.6643729439127366  0.2772765457213026   T   T   T
 -0.0056382977909425  0.5056382977909424  0.4221594369515865   T   T   T
  0.6666666666666643  0.8333333333333357  0.1391298678693147   F   F   F
  0.0000000000000000  0.5000000000000000  0.0000000000000000   F   F   F
  0.8356270560872634  0.1678135280436281  0.2772765457213026   T   T   T
  0.4999999966666664  0.0000000033333336  0.4095581539364086   T   T   T
  0.5000000000000000  0.0000000000000000  0.0000000000000000   F   F   F
  0.1666666666666643  0.3333333333333357  0.1391298678693147   F   F   F
  0.3321864719563719  0.1678135280436281  0.2772765457213026   T   T   T
 -0.0056383011242761 -0.0112765922485513  0.4221594335294492   T   T   T
  0.6666666666666643  0.3333333333333357  0.1391298678693147   F   F   F
  0.1666667000000004  0.3333332999999996  0.4962203668419896   T   T   T
 
  0.00000000E+00  0.00000000E+00  0.00000000E+00
  0.00000000E+00  0.00000000E+00  0.00000000E+00
  0.00000000E+00  0.00000000E+00  0.00000000E+00
  0.00000000E+00  0.00000000E+00  0.00000000E+00
  0.00000000E+00  0.00000000E+00  0.00000000E+00
  0.00000000E+00  0.00000000E+00  0.00000000E+00
  0.00000000E+00  0.00000000E+00  0.00000000E+00
  0.00000000E+00  0.00000000E+00  0.00000000E+00
  0.00000000E+00  0.00000000E+00  0.00000000E+00
  0.00000000E+00  0.00000000E+00  0.00000000E+00
  0.00000000E+00  0.00000000E+00  0.00000000E+00
  0.00000000E+00  0.00000000E+00  0.00000000E+00
  0.00000000E+00  0.00000000E+00  0.00000000E+00
  0.00000000E+00  0.00000000E+00  0.00000000E+00
  0.00000000E+00  0.00000000E+00  0.00000000E+00
  0.00000000E+00  0.00000000E+00  0.00000000E+00
  0.00000000E+00  0.00000000E+00  0.00000000E+00
