Pd  C  O 
 1.0000000000000000
     8.3099002837999993    0.0000000000000000    0.0000000000000000
    -4.1549501418999997    7.1965847487000003    0.0000000000000000
     0.0000000000000000    0.0000000000000000   16.5235004425000014
  36   1   2
Selective dynamics
Cartesian
  8.2996235408920640 -0.0266152668939479  7.2665609831093700   T   T   T
 -0.0059831282043160  1.6069973743847230  2.6477257109062280   F   F   F
  1.3754981199235761  0.8065729711962892  4.9426214409847411   T   T   T
  2.7732638280941595 -0.0085144825274570  7.2545505222044593   T   T   T
  2.7639559333947092  1.6069973743847230  2.6477257109062280   F   F   F
  4.1437517198876854  0.7985243588687694  4.9224951797586991   T   T   T
  5.5282802909646716 -0.0062751075038520  7.2093049085423360   T   T   T
  5.5339780939965992  1.6069973743847230  2.6477257109062280   F   F   F
  6.9162634679007633  0.8027475485374925  4.9399587277422965   T   T   T
  6.8723677978504494  2.3774194860441771  7.2599843499419867   T   T   T
 -1.3909942085052609  4.0059069345163794  2.6477257109062280   F   F   F
 -0.0078290949594120  3.1963525158220611  4.9285469890603864   T   T   T
  1.3909928086607057  2.3722104019010910  7.3746545234620555   T   T   T
  1.3789448530937642  4.0059069345163794  2.6477257109062280   F   F   F
  2.7496807407219759  3.1932890904915827  4.9399297968345559   T   T   T
  4.1426033711440269  2.3951915935044208  7.2012234344922179   T   T   T
  4.1489670136956542  4.0059069345163794  2.6477257109062280   F   F   F
  5.5301528883785105  3.1959894523039249  4.9224257184648508   T   T   T
  5.5164909808990323  4.7827872039509840  7.1944933667330844   T   T   T
 -2.7759637393047738  6.4047445288005260  2.6477257109062280   F   F   F
 -1.3903373749651642  5.5994269573398388  4.9298136113520279   T   T   T
  0.0066228672935702  4.8231015929115113  7.2410436237800724   T   T   T
 -0.0060246777057485  6.4047445288005260  2.6477257109062280   F   F   F
  1.3717140048498619  5.5978495474557262  4.9286574536348047   T   T   T
  2.7710251919920457  4.7950776543198623  7.2033886642280391   T   T   T
  2.7639974828961416  6.4047445288005260  2.6477257109062280   F   F   F
  4.1437423976648065  5.6013685028000504  4.9182707794083047   T   T   T
  8.3039171555956539  0.0077723115286082  0.3861542053412234   F   F   F
  2.7639559333947390  0.0077723115286082  0.3861542053412234   F   F   F
  5.5339780939966285  0.0077723115286082  0.3861542053412234   F   F   F
  6.9189476247961403  2.4066099058127550  0.3861542053412234   F   F   F
  1.3789864025952261  2.4066099058127550  0.3861542053412234   F   F   F
  4.1490085631971159  2.4066099058127550  0.3861542053412234   F   F   F
  5.5339365444951953  4.8055194659444114  0.3861542053412234   F   F   F
 -0.0060246777057187  4.8055194659444114  0.3861542053412234   F   F   F
  2.7639974828961709  4.8055194659444114  0.3861542053412234   F   F   F
  1.4430989974182786  0.7345623058577546  9.6654347502735831   T   T   T
  0.2578186372840843  2.8591635229072390  9.6615280162265247   T   T   T
  1.6223230695033395  0.2058054496517563 10.7147848379906350   T   T   T
