Ag   
   1.00000000000000     
  15.3612477337200009   0.0000000000000000   0.0000000000000000
   0.0000000000000000  15.3612477337200009   0.0000000000000000
   0.0000000000000000   0.0000000000000000  20.0000000000000000
Ag   
2  
Selective dynamics
Direct
  0.6205250119801456  0.8749946587628363  0.6126018270732655 T T T
  0.4404841117364926  0.8751503266829158  0.6121692792622382 T T T
