Li   F                                  
    1.000000000000000     
    12.0789003372000003    0.0000000000000000    0.0000000000000000
     0.0000000000000000   12.0789003372000003    0.0000000000000000
     0.0000000000000000    0.0000000000000000   12.0789003372000003
   Li   F 
   108   108
Direct
  0.0007511408230599  0.9992166182677834  1.0000538140402688
  0.0008138413697645  0.0005229249101035  0.3263807589592601
  0.0009406258685170  0.0001712470012336  0.6710352012157790
  0.0006893357361718  0.3257106078398537  0.0001631058168572
  0.9994223056186845  0.3263413537749817  0.3257907631426571
  0.0020587778531775  0.3262717890470770  0.6740205599858338
  0.0003616987465992  0.6708884334787268  0.9994149248960829
  0.0023525459522665  0.6738184185047099  0.3274854554076942
  0.0004453914756244  0.6740247652186605  0.6515510165403238
  0.3292371339862240  0.9996503331016392  0.9998550316520957
  0.3293863008515556  0.0002709642162728  0.3278612625401313
  0.3295915340579831  0.0003623121475204  0.6717232442526870
  0.3292431119455320  0.3276398475949348  0.0003365849996818
  0.3300265092735962  0.3284749284285116  0.3285967440458896
  0.3304067982744924  0.3289781224049116  0.6719186601179497
  0.3293805985467421  0.6714756645333415  0.0003599571078907
  0.3445268848618966  0.6718239162596283  0.3291739055170894
  0.3292491173275746  0.6701997430106098  0.6702441612675202
  0.6696986653815026  0.9989721696653552  0.9998352074737129
  0.6718488625022709  0.9990864967177409  0.3284382066762018
  0.6693715720296249  1.0004075411451938  0.6710593918948180
  0.6718274680241466  0.3275327725638781  0.9984716451562807
  0.6727186309043584  0.3287605653412854  0.3278697894939263
  0.6726688677540570  0.3296350023607534  0.6712984005506940
  0.6711737241609625  0.6708734846099290  0.9996478236106023
  0.6729339433402247  0.6711812017183051  0.3296798811879983
  0.6727488203461687  0.6716936310873742  0.6705714215224835
  0.0000111217269127  0.1698130856926478  0.1699993490976401
  0.0001968656460301  0.1699325663790199  0.4996401235025521
  0.0006517827012332  0.1543550633016866  0.8294336883270521
  0.0002335785261109  0.4996497569377087  0.1699878028318701
  0.9715160316495738  0.4766309770706572  0.4769658218875786
  0.0008164431881870  0.5005538708055369  0.8478027966327364
  0.0007262739129542  0.8290207953413992  0.1547659893127918
  0.0008434270882048  0.8491672560944353  0.4994347762328948
 -0.0001122023923262  0.8272414985607927  0.8275118278293742
  0.3293827295976803  0.1704167473257832  0.1706287037853751
  0.3305424675063604  0.1707997019151402  0.4999436682361649
  0.3297304510026783  0.1703964106861563  0.8289667960762657
  0.3306300830365214  0.4998039599699075  0.1709294068884098
  0.3518897306251677  0.5003757677826878  0.5005354838393428
  0.3454875090100156  0.4996847674104719  0.8471951828325838
  0.3297884947289941  0.8287534728912742  0.1706224503766370
  0.3458108828809806  0.8470571769878973  0.4997864732929682
  0.3300225797500011  0.8286273950759921  0.8288753770991086
  0.6711582061196550  0.1703473300061823  0.1704792656715686
  0.6705811696236909  0.1691773449650173  0.4996875109926783
  0.6717657237258259  0.1713826801977622  0.8288852852125226
  0.6708071219523419  0.4995899064767045  0.1688558365549463
  0.6718321152351383  0.4997669730157244  0.4998516330707778
  0.6732449866562304  0.4993247532413446  0.8276377232746733
  0.6719178411757413  0.8286337659807846  0.1715019018567862
  0.6732875102485369  0.8276551828961919  0.4993816496572304
  0.6713329523891358  0.8283489427420161  0.8284304474640111
  0.1712625593695286  0.9996657702306492  0.1706226045612534
  0.1729974975368265  0.0013719356886446  0.4996376518016483
  0.1722717974593786  0.9992214088929458  0.8289222183832067
  0.1713212998845667  0.3283616686907593  0.1701124714413253
  0.1720985634049574  0.3213068266722706  0.5007970707141801
  0.1707684587676466  0.3275815526229874  0.8296653375157232
  0.1724801811565443  0.6711870359274860  0.1711725321525191
  0.1747266255397545  0.6966321945285360  0.4984973613915144
  0.1709685111030721  0.6705903968060252  0.8291399337908588
  0.5001563556101177  0.9997064710066383  0.1707780547342390
  0.5014981946374969  0.0011988222488328  0.4997926709216576
  0.5001171600456882  0.9997439730190006  0.8286933934295510
  0.5002539253592371  0.3283287783674035  0.1705974364969229
  0.5012354547169938  0.3272683740879324  0.4997997840195957
  0.5009174782207546  0.3276579286261234  0.8287855318653954
  0.5008539443958463  0.6707659697674652  0.1695461107297889
  0.5017848666470018  0.6717491591065827  0.5003629564739791
  0.5007820232304375  0.6716204883668996  0.8287035562569296
  0.8289289428712135  0.9991371328782078  0.1712052735106139
  0.8279338701461080  0.0006917376114565  0.4989125270928246
  0.8278535886167835  0.9993425490099084  0.8290892800644010
  0.8287745735001504  0.3269280722909083  0.1542776369561717
  0.8251395065744781  0.3242717901077900  0.4997730509696535
  0.8465794579972673  0.3270005138042217  0.8296290905695933
  0.8292802560065273  0.6708372503700134  0.1705233000369788
  0.8482557778768476  0.6742666710271566  0.5010072923733888
  0.8292931877528976  0.6726276376655215  0.8285506250482892
  0.1712176162319091  0.1701364961479552  0.9998634103017011
  0.1713267273326438  0.1700756803968454  0.3285153984772000
  0.1719509771751928  0.1696060758850419  0.6714722890527609
  0.1728457195516431  0.4996200373225081  0.0014316969944532
  0.1728164932564108  0.5011567037099384  0.3216712501046403
  0.1731896542383292  0.4993616668614635  0.6967804006733544
  0.1722208327058287  0.8285287245760812  0.9994372185846662
  0.1719331327163885  0.8288841221424266  0.3278261409215655
  0.1720435207433904  0.8299699480784707  0.6707474622419121
  0.5001206477434702  0.1704498002747940  0.9998102329916745
  0.5002723938998038  0.1706768240552450  0.3285308217240087
  0.5001616669065363  0.1708599631585394  0.6709817340419219
  0.5015607587656049  0.4995922925847156  0.0011514830352746
  0.5016359002867022  0.4991436831068661  0.3272998056805719
  0.5013444339101248  0.4997530059856720  0.6718103590270612
  0.5001850693694715  0.8284636956759397  0.9998200597998866
  0.5016217410905747  0.8296026768154503  0.3277653137327621
  0.5006576099912858  0.8287562585878883  0.6718244900189797
  0.8288812369482360  0.1535775100700094  0.9994800879083823
  0.8288747739368113  0.1698914659955798  0.3269626700303386
  0.8289743184566865  0.1706278248546595  0.6711955861957694
  0.8280641129238164  0.4999507363441927  0.9996407384745575
  0.8251539110410498  0.4988745509022751  0.3236547675475747
  0.8495735146004562  0.4995199717016655  0.6744559591244573
  0.8279570831884340  0.8285383549587315  0.9993810335712534
  0.8467405537245931  0.8288290880210181  0.3277700558751487
  0.8278046183312736  0.8446958392377795  0.6719857246206156
  0.0008306593981758  0.1615949411119117  0.0013845732892890
  0.0029994834799944  0.1670736711962228  0.3311199003163720
  0.0018814600246159  0.1650979035632999  0.6667933255833393
  0.0014553020763149  0.4983219689716830  0.0034108108327086
  0.0091412265428553  0.4990107098848067  0.3319518605308731
  0.0257688826183750  0.4719420548773950  0.7032186134692614
  0.0018530122474345  0.8313268629796562  0.9974079047239729
  0.0041051153760012  0.8396401819510450  0.3205525620887350
  0.0039799896962076  0.8371409929827588  0.6655736104952683
  0.3327606387189697  0.1666016138411503  1.0001528444592254
  0.3322951040450738  0.1685344517182053  0.3321014786315769
  0.3338227679717751  0.1674789188266146  0.6671579582274537
  0.3369790049098726  0.4990793797045641  0.0047753879861499
  0.3317185913355620  0.4985738554978547  0.3373244305318427
  0.3304940462337441  0.4992344058651402  0.6628300226641032
  0.3332242755514482  0.8313865846432259  0.9993555045914452
  0.3365140579683057  0.8331054526037048  0.3319424346934566
  0.3348520551024127  0.8320006039522325  0.6670159277313973
  0.6678303304722528  0.1649324563598117  0.9989944663473943
  0.6673764896500997  0.1662112065382428  0.3308770581963540
  0.6680643523718227  0.1669935779632318  0.6675617586173499
  0.6680429154189987  0.4988238412330923  1.0000876959930145
  0.6628357870312817  0.4998133831715870  0.3245636862569168
  0.6727699265753224  0.4992632861055000  0.6665557477102880
  0.6670076334849565  0.8314029742822974  1.0000696717250992
  0.6702088427575440  0.8316365296177261  0.3315554941741661
  0.6636800387591638  0.8377086612158776  0.6667971757406244
  0.0011544719061351  0.0002724270326288  0.1641527271650552
  0.0016200054506211  0.0043111203674865  0.4984273057973687
  0.0012958333927457  0.9969055977920629  0.8317675635816684
  0.0034230786865430  0.3311326077996327  0.1655873333093918
  0.0080809369518733  0.3311964784435883  0.4980382083625263
  0.0036342588025793  0.3175159521101574  0.8407587075727184
  0.0023335060978654  0.6666259512453789  0.1661682271682311
  0.0252537511307125  0.7033136625559969  0.4781656508447566
  0.0029785258414235  0.6670171292442547  0.8328816113378873
  0.3328633219022765  0.9995858822840500  0.1671708421993822
  0.3370178168812809  0.0045237199552659  0.4993141477461043
  0.3331938908923904  0.9987684036644751  0.8320152486104994
  0.3323056269353973  0.3318052343788733  0.1687418886050540
  0.3298381983081599  0.3373512658228022  0.4986817522791298
  0.3344630833481339  0.3316240556302261  0.8334003508750282
  0.3353487621311372  0.6668288942153557  0.1680368701763437
  0.3334237965615992  0.6633288226869996  0.4993785056705788
  0.3345190507883047  0.6667492087764993  0.8319194645912606
  0.6677539013747342  0.9985794659173364  0.1670831893020999
  0.6678859369750396  1.0010118245650361  0.4990721582074187
  0.6671142397199954  0.9998585477040611  0.8320311541799608
  0.6670692518917679  0.3306748762407882  0.1641199002502403
  0.6627844843137920  0.3248975744117536  0.5003502506254244
  0.6695058887250073  0.3311706278270533  0.8313902726292985
  0.6687112153074273  0.6672511677134287  0.1668374315160168
  0.6718344156988260  0.6666771004461496  0.4986008107687149
  0.6655527562065151  0.6669753932127559  0.8344100731860203
  0.1688597810042808  0.1677622052927418  0.1682308554308451
  0.1698424557884150  0.1661948419572591  0.4986489598959994
  0.1700900937320619  0.1644570304800771  0.8321627480186913
  0.1701239758193316  0.4988081262048107  0.1666553171765481
  0.9303191941404581  0.5714641080310896  0.5738012525970084
  0.1809448782438601  0.5003126004622624  0.8461147922466941
  0.1703045212836950  0.8314697004265940  0.1655918090330400
  0.1812771418505056  0.8459965434721136  0.5000923580979354
  0.1697468724125980  0.8306919113521678  0.8307095294950896
  0.4996783174943614  0.1669445496421107  0.1672856142821628
  0.4982875452661102  0.1675542005077370  0.4993610469481453
  0.5001437294987088  0.1670130000933578  0.8318029851927600
  0.4986196915171008  0.4992119663693629  0.1674790847668292
  0.5047554584575447  0.4993067903463366  0.4995414790846673
  0.5019880035578647  0.4988123295183047  0.8323886628138047
  0.5005980066247605  0.8313038236771341  0.1673414311520145
  0.5023373253608995  0.8324393445247891  0.4987926138395838
  0.4998456390768622  0.8317291984081943  0.8321219578617017
  0.8324059936993295  0.1633139375450405  0.1635098465465827
  0.8335575284171011  0.1671362210989626  0.4985271055028878
  0.8334824234486390  0.1626845006624978  0.8318719613359118
  0.8337308641871787  0.4994595978320099  0.1649562521605632
  0.8156430320581910  0.4675207903864481  0.4673599665345958
  0.8359202187316161  0.4992055535910359  0.8347241339604847
  0.8339745052826787  0.8310694337566730  0.1653503151229019
  0.8363197231267581  0.8374416760301696  0.4973258297724630
  0.8324147081914844  0.8376397897838579  0.8359217173569703
  0.1686903240303965  0.9981333876891912  0.9990413499493630
  0.1697700489026992  0.0012512267533217  0.3308655297251252
  0.1694012852460492  0.0011559572985419  0.6679447825859246
  0.1695883566363976  0.3303016635131032  0.0015853755260344
  0.1687556334794098  0.3365740254094224  0.3364370186449471
  0.1745582641312344  0.3283291745790894  0.6643198788388082
  0.1691889147685516  0.6676193867690808  0.0014376923531024
  0.1767574515001267  0.6643415324929560  0.3312190132596974
  0.1684563912257597  0.6644135075487335  0.6624634794363358
  0.4998124519841199  0.9990349108700090  0.9997603393499165
  0.5004977540603706  0.9994322302558448  0.3318145036979563
  0.4991888185506308  1.0003838766584376  0.6669723035113564
  0.5001073729303535  0.3312945857471253  0.9991951792606850
  0.4988484812497240  0.3317701219207249  0.3318922827990223
  0.4989709654101243  0.3328657330263324  0.6673023177904721
  0.4999245316991592  0.6665243365319823  0.9997600482286624
  0.5021019607364926  0.6672136680223715  0.3325809469611588
  0.5005117178828924  0.6662854074626130  0.6665346651526457
  0.8321161528744290  0.9961955724136154  0.9997742182938799
  0.8341913540869124  0.0007999990824202  0.3310771149802074
  0.8327676296521220  0.0023678526381873  0.6667104179147747
  0.8339234422021414  0.3295934400389448  0.9975525748340689
  0.8352972778708663  0.3242989361143100  0.3190500538930379
  0.8372828288369731  0.3306716951933736  0.6665930485427726
  0.8333043060954882  0.6672291762034692  0.9995615572866133
  0.8380302427346351  0.6659215999494162  0.3318639241722318
  0.8227754158628675  0.6912997641488843  0.6791194544794382
 
             NaN             NaN             NaN
             NaN             NaN             NaN
             NaN             NaN             NaN
             NaN             NaN             NaN
             NaN             NaN             NaN
             NaN             NaN             NaN
             NaN             NaN             NaN
             NaN             NaN             NaN
             NaN             NaN             NaN
             NaN             NaN             NaN
             NaN             NaN             NaN
             NaN             NaN             NaN
             NaN             NaN             NaN
             NaN             NaN             NaN
             NaN             NaN             NaN
             NaN             NaN             NaN
             NaN             NaN             NaN
             NaN             NaN             NaN
             NaN             NaN             NaN
             NaN             NaN             NaN
             NaN             NaN             NaN
             NaN             NaN             NaN
             NaN             NaN             NaN
             NaN             NaN             NaN
             NaN             NaN             NaN
             NaN             NaN             NaN
             NaN             NaN             NaN
             NaN             NaN             NaN
             NaN             NaN             NaN
             NaN             NaN             NaN
             NaN             NaN             NaN
             NaN             NaN             NaN
             NaN             NaN             NaN
             NaN             NaN             NaN
             NaN             NaN             NaN
             NaN             NaN             NaN
             NaN             NaN             NaN
             NaN             NaN             NaN
             NaN             NaN             NaN
             NaN             NaN             NaN
             NaN             NaN             NaN
             NaN             NaN             NaN
             NaN             NaN             NaN
             NaN             NaN             NaN
             NaN             NaN             NaN
             NaN             NaN             NaN
             NaN             NaN             NaN
             NaN             NaN             NaN
             NaN             NaN             NaN
             NaN             NaN             NaN
             NaN             NaN             NaN
             NaN             NaN             NaN
             NaN             NaN             NaN
             NaN             NaN             NaN
             NaN             NaN             NaN
             NaN             NaN             NaN
             NaN             NaN             NaN
             NaN             NaN             NaN
             NaN             NaN             NaN
             NaN             NaN             NaN
             NaN             NaN             NaN
             NaN             NaN             NaN
             NaN             NaN             NaN
             NaN             NaN             NaN
             NaN             NaN             NaN
             NaN             NaN             NaN
             NaN             NaN             NaN
             NaN             NaN             NaN
             NaN             NaN             NaN
             NaN             NaN             NaN
             NaN             NaN             NaN
             NaN             NaN             NaN
             NaN             NaN             NaN
             NaN             NaN             NaN
             NaN             NaN             NaN
             NaN             NaN             NaN
             NaN             NaN             NaN
             NaN             NaN             NaN
             NaN             NaN             NaN
             NaN             NaN             NaN
             NaN             NaN             NaN
             NaN             NaN             NaN
             NaN             NaN             NaN
             NaN             NaN             NaN
             NaN             NaN             NaN
             NaN             NaN             NaN
             NaN             NaN             NaN
             NaN             NaN             NaN
             NaN             NaN             NaN
             NaN             NaN             NaN
             NaN             NaN             NaN
             NaN             NaN             NaN
             NaN             NaN             NaN
             NaN             NaN             NaN
             NaN             NaN             NaN
             NaN             NaN             NaN
             NaN             NaN             NaN
             NaN             NaN             NaN
             NaN             NaN             NaN
             NaN             NaN             NaN
             NaN             NaN             NaN
             NaN             NaN             NaN
             NaN             NaN             NaN
             NaN             NaN             NaN
             NaN             NaN             NaN
             NaN             NaN             NaN
             NaN             NaN             NaN
             NaN             NaN             NaN
             NaN             NaN             NaN
             NaN             NaN             NaN
             NaN             NaN             NaN
             NaN             NaN             NaN
             NaN             NaN             NaN
             NaN             NaN             NaN
             NaN             NaN             NaN
             NaN             NaN             NaN
             NaN             NaN             NaN
             NaN             NaN             NaN
             NaN             NaN             NaN
             NaN             NaN             NaN
             NaN             NaN             NaN
             NaN             NaN             NaN
             NaN             NaN             NaN
             NaN             NaN             NaN
             NaN             NaN             NaN
             NaN             NaN             NaN
             NaN             NaN             NaN
             NaN             NaN             NaN
             NaN             NaN             NaN
             NaN             NaN             NaN
             NaN             NaN             NaN
             NaN             NaN             NaN
             NaN             NaN             NaN
             NaN             NaN             NaN
             NaN             NaN             NaN
             NaN             NaN             NaN
             NaN             NaN             NaN
             NaN             NaN             NaN
             NaN             NaN             NaN
             NaN             NaN             NaN
             NaN             NaN             NaN
             NaN             NaN             NaN
             NaN             NaN             NaN
             NaN             NaN             NaN
             NaN             NaN             NaN
             NaN             NaN             NaN
             NaN             NaN             NaN
             NaN             NaN             NaN
             NaN             NaN             NaN
             NaN             NaN             NaN
             NaN             NaN             NaN
             NaN             NaN             NaN
             NaN             NaN             NaN
             NaN             NaN             NaN
             NaN             NaN             NaN
             NaN             NaN             NaN
             NaN             NaN             NaN
             NaN             NaN             NaN
             NaN             NaN             NaN
             NaN             NaN             NaN
             NaN             NaN             NaN
             NaN             NaN             NaN
             NaN             NaN             NaN
             NaN             NaN             NaN
             NaN             NaN             NaN
             NaN             NaN             NaN
             NaN             NaN             NaN
             NaN             NaN             NaN
             NaN             NaN             NaN
             NaN             NaN             NaN
             NaN             NaN             NaN
             NaN             NaN             NaN
             NaN             NaN             NaN
             NaN             NaN             NaN
             NaN             NaN             NaN
             NaN             NaN             NaN
             NaN             NaN             NaN
             NaN             NaN             NaN
             NaN             NaN             NaN
             NaN             NaN             NaN
             NaN             NaN             NaN
             NaN             NaN             NaN
             NaN             NaN             NaN
             NaN             NaN             NaN
             NaN             NaN             NaN
             NaN             NaN             NaN
             NaN             NaN             NaN
             NaN             NaN             NaN
             NaN             NaN             NaN
             NaN             NaN             NaN
             NaN             NaN             NaN
             NaN             NaN             NaN
             NaN             NaN             NaN
             NaN             NaN             NaN
             NaN             NaN             NaN
             NaN             NaN             NaN
             NaN             NaN             NaN
             NaN             NaN             NaN
             NaN             NaN             NaN
             NaN             NaN             NaN
             NaN             NaN             NaN
             NaN             NaN             NaN
             NaN             NaN             NaN
             NaN             NaN             NaN
             NaN             NaN             NaN
             NaN             NaN             NaN
             NaN             NaN             NaN
             NaN             NaN             NaN
             NaN             NaN             NaN
             NaN             NaN             NaN
             NaN             NaN             NaN
             NaN             NaN             NaN
             NaN             NaN             NaN
             NaN             NaN             NaN
             NaN             NaN             NaN
             NaN             NaN             NaN
