Li   F 
    1.000000000000000     
  12.0789003372000003   0.0000000000000000   0.0000000000000000
   0.0000000000000000  12.0789003372000003   0.0000000000000000
   0.0000000000000000   0.0000000000000000  12.0789003372000003
Li   F 
108  108  
Direct
  0.0004192058570140  0.9995361166239930  0.9999289640145510  
  0.0005646168425386  0.0005402468807034  0.3264932399817650  
  0.0007340485472724  0.0002019207134154  0.6714486413802800  
  0.0005540143879799  0.3261678256248080  0.0003425110468029  
  0.9998836571942680  0.3263748747010740  0.3261191498739610  
  0.0017516446829049  0.3265915515740760  0.6739919764134470  
  0.0003990883894573  0.6713722495772170  0.9997876483828489  
  0.0017961882282904  0.6739223749713050  0.3271383802708100  
  0.0002606920791735  0.6727813744093750  0.6618070186114829  
  0.3292045108147550  0.9996652269932440  0.9997389555092080  
  0.3293863952960550  0.0001933767050417  0.3277480198882330  
  0.3295946908498380  0.0002969359333775  0.6716276355843790  
  0.3293294799401490  0.3276321909258120  0.0002467098024184  
  0.3374762912942370  0.3283997701603030  0.3284542927319050  
  0.3373287668116940  0.3288919876980220  0.6717765276317640  
  0.3289107358552810  0.6715195298886980  0.0000625632403199  
  0.3378881015561600  0.6716739826582130  0.3286406355480550  
  0.3292322660537290  0.6701161728622300  0.6701295224831800  
  0.6706430666204430  0.9993137089825840  0.9997077377468390  
  0.6714808505253130  0.9990606098967730  0.3279479579621950  
  0.6703775596685160  0.9998053337439640  0.6713313912666340  
  0.6715442719984850  0.3275426946911110  0.9987975020057930  
  0.6723471625340660  0.3286696300430020  0.3281891037576020  
  0.6724978882693829  0.3292362892762740  0.6702386614555920  
  0.6713993783413840  0.6712564542195740  0.9992123364950420  
  0.6721749544390860  0.6700702329694790  0.3290089114616070  
  0.6721174731898000  0.6711415404018480  0.6704958481003660  
  0.0001090236854893  0.1699108745047580  0.1700051170484260  
  0.0003695591824169  0.1699543462542220  0.4996507679510960  
  0.0004678842919503  0.1613192177912950  0.8293970737380010  
  0.0003442652304670  0.4996269629569380  0.1699440712873750  
  0.9719393571178400  0.4769663386626280  0.4771440273199940  
  0.0005765637734996  0.4998473761320880  0.8481372468969750  
  0.0004469355928691  0.8292150211853270  0.1614623371331590  
  0.0005442756019391  0.8488454956448380  0.4993169427363430  
  0.0000380371622200  0.8279599241768810  0.8280869208192100  
  0.3294972517466800  0.1703899005552430  0.1705050604712710  
  0.3375982386780620  0.1706979072340150  0.4998428531386950  
  0.3298275458188510  0.1704279119299980  0.8288110575098240  
  0.3376152359622890  0.4997695329433610  0.1707914242087440  
  0.3521246406664960  0.5003123169947590  0.5003477410420840  
  0.3456299247955030  0.4996641628684340  0.8469852283021030  
  0.3298104571488450  0.8287172962075150  0.1705399225056540  
  0.3457132160211240  0.8469724552848420  0.4996892000417570  
  0.3372113385015610  0.8286738661278790  0.8287258422225960  
  0.6712132794654340  0.1701510525537980  0.1702139059528630  
  0.6709432049621850  0.1625478835297050  0.4996010858736000  
  0.6714587064669360  0.1707540094912550  0.8287481581170720  
  0.6709820257668540  0.4995700901638070  0.1623536207061780  
  0.6716785408018850  0.4998007328561370  0.4997974069973950  
  0.6730434667310090  0.4995491843490710  0.8273237904924861  
  0.6714529918845780  0.8285857297882020  0.1708266025622580  
  0.6729957585960020  0.8273246988047590  0.4995436984469780  
  0.6714875089768380  0.8283957468683520  0.8283958044812180  
  0.1711739969603980  0.9997316525000670  0.1704953398692270  
  0.1731715239587070  0.0016003862455705  0.4996365002558680  
  0.1720733716635650  0.9992337059458120  0.8288255711958070  
  0.1718710429764910  0.3287212689714780  0.1705569310742940  
  0.1730032876112660  0.3209138385595760  0.5007093733658720  
  0.1713390880117200  0.3279658672952760  0.8290814726111860  
  0.1723390239220490  0.6707177172945080  0.1703375654776880  
  0.1739755173477920  0.6965839753388110  0.4989409463971340  
  0.1717975971808270  0.6710011162246370  0.8294289926665780  
  0.5001660004097420  0.9996274068870430  0.1704939088988550  
  0.5015041383778890  0.0005590257148427  0.4996849003089780  
  0.5003925864736229  0.9999700653279500  0.8285854244185979  
  0.5007859302897940  0.3279584840559550  0.1697640850805800  
  0.5022890166355720  0.3272950114837270  0.4996706735422480  
  0.5011537038178910  0.3275813175375430  0.8290277984744140  
  0.5006670583208290  0.6711229470806050  0.1624301518720800  
  0.5015494674189750  0.6716067966615000  0.4998173795535690  
  0.5010162075107230  0.6712055136139630  0.8283944947117660  
  0.8290703346539420  0.9993964681602210  0.1705997137837800  
  0.8284850856395990  0.0001378152990981  0.4991958158592880  
  0.8283200867241970  0.9995408129918100  0.8291127992066050  
  0.8288502842843710  0.3272791813665280  0.1615398250181390  
  0.8248713198848210  0.3243203699991570  0.4995466883243790  
  0.8383054861396740  0.3276099227631310  0.8291281299969950  
  0.8292498460766000  0.6708209263720590  0.1703830458222630  
  0.8492600361838361  0.6736713874581350  0.5008646941698560  
  0.8288163496970991  0.6722174229016600  0.8299262351158559  
  0.1711677130310960  0.1702971658074900  0.9998026373940410  
  0.1718737226563580  0.1705557120212330  0.3288543382032430  
  0.1724392682378520  0.1702021235416210  0.6708868919980870  
  0.1730831416380100  0.4995603535184690  0.0015897613875637  
  0.1730248298622500  0.5006060202569740  0.3210337658654860  
  0.1735688633768650  0.4990677489449520  0.6966229404717480  
  0.1720073803383000  0.8287086829566160  0.9992965834817080  
  0.1714831305745930  0.8291530180916100  0.3280090147995620  
  0.1722785916702700  0.8298833606117100  0.6711072333958090  
  0.5001636976292900  0.1702835311575230  0.9997015194765591  
  0.5007868693476500  0.1698800386216700  0.3280238636777000  
  0.5007331837285069  0.1700699080219220  0.6711848309750650  
  0.5015327752905629  0.4993194059468280  0.0003739050742482  
  0.5023112296309120  0.4999542643773580  0.3270727745836340  
  0.5015370272728750  0.4999405882695030  0.6716242028402920  
  0.5004014295291060  0.8290332026581591  0.9997017868327590  
  0.5011927436248700  0.8284572349556570  0.3273776126678030  
  0.5009702561512840  0.8286128159762139  0.6712191446263130  
  0.8290631878884800  0.1619735009260310  0.9995574507553751  
  0.8288804864360340  0.1693263006958720  0.3273006093551630  
  0.8291717076880050  0.1704878023712480  0.6710121686651010  
  0.8285843014405430  0.4997051989339600  0.9996096721177350  
  0.8248511586633850  0.4991077202594880  0.3239801624254850  
  0.8498369286801410  0.5001330623383280  0.6737867398996900  
  0.8283641703881560  0.8288449163048600  0.9995409570726110  
  0.8381816435519550  0.8287448692039020  0.3279672363518100  
  0.8279567060018780  0.8379169124695660  0.6718956234192960  
  0.0010211735861887  0.1632750670828220  0.0015340187118298  
  0.0029310122975659  0.1671287869812090  0.3313347995958720  
  0.0020359069252791  0.1661016323274750  0.6666793047295489  
  0.0014897076456108  0.4986203365849700  0.0035945265578476  
  0.0087967940386093  0.4984112748928310  0.3316412835457920  
  0.0263756296234590  0.4717472467779370  0.7041562509980110  
  0.0015626163983740  0.8315681407990140  0.9984720895051570  
  0.0018653767370367  0.8407320337003410  0.3210109484610730  
  0.0034310833269799  0.8356131307904699  0.6663487090976330  
  0.3330248135720380  0.1666605794781830  0.9998135868780270  
  0.3341858317091780  0.1683051279099100  0.3318271583475860  
  0.3357166939796770  0.1672557036685380  0.6669142469830260  
  0.3380318280220890  0.4990631275244230  0.0044161101990525  
  0.3329150635653310  0.4983023493556540  0.3366151685953010  
  0.3319679773714840  0.4991643260833170  0.6627374363257130  
  0.3339825436840510  0.8313848167381290  0.9990580086752420  
  0.3357456145530120  0.8329713506004670  0.3316149795755760  
  0.3358105645188090  0.8318891942498330  0.6668907257523951  
  0.6677566685551281  0.1657142930202080  0.9987447710461840  
  0.6674390637658760  0.1652834633356970  0.3305845732879580  
  0.6682727226295671  0.1659116994420980  0.6672980853371659  
  0.6680138391054060  0.4987171943323500  0.9986499162979070  
  0.6633474372166650  0.4995520634378820  0.3231488440417540  
  0.6719487742232320  0.4987686784294430  0.6663445317991830  
  0.6671683681737191  0.8315467489270530  0.9995315931241540  
  0.6695262725061329  0.8310369035971020  0.3310460798170850  
  0.6642593901037021  0.8362087026542970  0.6667625607728170  
  0.0011138042853318  0.0009982149168835  0.1644808204710630  
  0.0015473323547752  0.0040806051046900  0.4987194986354100  
  0.0013751517323044  0.9982845806936280  0.8317525409691410  
  0.0031978618276867  0.3313042928982450  0.1664001481603920  
  0.0084536778106212  0.3313220663897880  0.4981307585458270  
  0.0018103493185535  0.3195680282908740  0.8412599237875680  
  0.0019875098311459  0.6665756645204790  0.1664234524317860  
  0.0256887360775764  0.7041371240952760  0.4749059026255440  
  0.0028868087798415  0.6670442585247540  0.8334108830788690  
  0.3330250302824500  0.9994964994870800  0.1668981501309190  
  0.3379899993642400  0.0043746728442713  0.4990683333581030  
  0.3339993428110400  0.9989283942283510  0.8317331281859880  
  0.3341733269799720  0.3317178724561320  0.1684001632648420  
  0.3330158043239710  0.3366338074997230  0.4982940185985570  
  0.3358011076468940  0.3315910284252940  0.8332172639188680  
  0.3355460737435010  0.6667363886306670  0.1666776174363420  
  0.3320932117253080  0.6626003514119460  0.4991537069493430  
  0.3356615868479910  0.6668284914347140  0.8318178482774530  
  0.6676714724467840  0.9984996312108120  0.1666883132314890  
  0.6679776355557150  0.9991353510095210  0.4987563946198390  
  0.6673196484170280  0.9996205359363870  0.8318400910031660  
  0.6673152707071350  0.3305146157147620  0.1642547190000490  
  0.6634036189608490  0.3235017051741810  0.4997037756302800  
  0.6693570826838310  0.3309971521866050  0.8310448191971820  
  0.6683258199301890  0.6671481515886130  0.1650445339179850  
  0.6713732353685130  0.6663856146264280  0.4983909054006330  
  0.6651893340661560  0.6668523730252570  0.8345094622612590  
  0.1693393717283130  0.1680411201822100  0.1682910231922820  
  0.1711587877633750  0.1660234932368640  0.4985460537077490  
  0.1702734363028210  0.1655823855176100  0.8316952929110430  
  0.1711435226746190  0.4985649312663090  0.1661644697876450  
  0.9347485294076630  0.5731917735452750  0.5745739192594210  
  0.1818476640563770  0.5004848724376530  0.8461370804870260  
  0.1701569891250610  0.8313728373975100  0.1659842662480740  
  0.1816988306883120  0.8460587798543240  0.5003727656576020  
  0.1705805059068340  0.8308232487995180  0.8308264615194220  
  0.5001452670974660  0.1666738253034050  0.1668420700603410  
  0.5001916232010331  0.1665296232986790  0.4989841817428480  
  0.5007478757877100  0.1669214374938330  0.8315987224374770  
  0.5002102163525630  0.4990435047427650  0.1657134662717330  
  0.5052173116110910  0.4988743691495400  0.4991320764347550  
  0.5023162173474630  0.4984540040790150  0.8320309874095880  
  0.5006912514800700  0.8312614655197730  0.1662491905867610  
  0.5022515394775410  0.8320628590456780  0.4985565152779540  
  0.5010791692381600  0.8317304117933660  0.8317530692747680  
  0.8324223796227410  0.1643957429656600  0.1644895124156560  
  0.8336436375858300  0.1660885717234780  0.4986902840249170  
  0.8327391346040970  0.1642372147425280  0.8315047250480559  
  0.8336652423747281  0.4991008686162250  0.1649262678330890  
  0.8161648733328870  0.4695251042295250  0.4693861828352300  
  0.8352080664446360  0.4989375273600340  0.8347155188787380  
  0.8328510702937990  0.8311145983477810  0.1654083231290710  
  0.8353121087910580  0.8360567137853040  0.4980595053965120  
  0.8326689658368380  0.8366061472892530  0.8357158510999130  
  0.1688733094750390  0.9985598637776580  0.9989859492066340  
  0.1698390021699940  0.0011790424686922  0.3307449670021750  
  0.1696204080019970  0.0011369844711950  0.6678385865634200  
  0.1699083010832750  0.3304918578098750  0.0012953824094453  
  0.1701953826714590  0.3365238698481150  0.3365864815693480  
  0.1769011023066230  0.3289701489898960  0.6639381267899790  
  0.1691924225344650  0.6676969427799621  0.0010397424263502  
  0.1761556123003630  0.6639909045415640  0.3297973775274410  
  0.1686078158735430  0.6643556260144410  0.6635213642156830  
  0.5000386323651040  0.9990466519675180  0.9992267880658690  
  0.5008034238993700  0.9988601773333200  0.3314827454090760  
  0.4999545192011400  0.9997946814815180  0.6666943505026171  
  0.5007665637982580  0.3312713601002460  0.9988904661262979  
  0.5005210400269819  0.3314735229564720  0.3312609538076570  
  0.5007229880948290  0.3322780746687290  0.6670657580090590  
  0.5001867971157380  0.6665536153779930  0.9982163258905530  
  0.5007939338370730  0.6668490896830970  0.3318019959941410  
  0.5005616929155180  0.6661885165948790  0.6661864517780670  
  0.8322389642707790  0.9979453439012290  0.9995828514195541  
  0.8330742938812820  0.0005624807133984  0.3311103730595520  
  0.8329422482358670  0.0009791077489751  0.6667062140570790  
  0.8330180466307699  0.3303937247662820  0.9990392959193100  
  0.8351816390655320  0.3244797404427260  0.3218542363853060  
  0.8365749226772580  0.3308961384016630  0.6660803581339541  
  0.8331873922707440  0.6669603550936860  0.9993876915044030  
  0.8367505667438380  0.6657520606481530  0.3313082849440580  
  0.8221446354260920  0.6866096090422430  0.6806251146640750  
