Pd  C  O 
 1.0000000000000000
     8.3099002837999993    0.0000000000000000    0.0000000000000000
    -4.1549501418999997    7.1965847487000003    0.0000000000000000
     0.0000000000000000    0.0000000000000000   16.5235004425000014
  36   1   2
Selective dynamics
Cartesian
  8.3034622513786456 -0.0041485576745119  7.2385478500877847   T   T   T
 -0.0059831282043160  1.6069973743847230  2.6477257109062280   F   F   F
  1.3774360133490375  0.8074889865493227  4.9340783133790902   T   T   T
  2.7667253687813824  0.0025359868554441  7.2326278099929961   T   T   T
  2.7639559333947092  1.6069973743847230  2.6477257109062280   F   F   F
  4.1471901977291958  0.8042622255192042  4.9267538935149142   T   T   T
  5.5323256636793046  0.0032318277604119  7.2172158998053444   T   T   T
  5.5339780939965992  1.6069973743847230  2.6477257109062280   F   F   F
  6.9182493060604697  0.8054954333805220  4.9331519809529008   T   T   T
  6.9039341924955977  2.3964555941323211  7.2351674343011076   T   T   T
 -1.3909942085052609  4.0059069345163794  2.6477257109062280   F   F   F
 -0.0068091864899777  3.2031546451879840  4.9291023100558036   T   T   T
  1.3819681228403293  2.3953726643975486  7.2759935270966318   T   T   T
  1.3789448530937642  4.0059069345163794  2.6477257109062280   F   F   F
  2.7589137184674608  3.2020469394090401  4.9321776595573246   T   T   T
  4.1466256091666223  2.4028155159281210  7.2134955353969756   T   T   T
  4.1489670136956542  4.0059069345163794  2.6477257109062280   F   F   F
  5.5327496419922646  3.2027904289074183  4.9268209269833863   T   T   T
  5.5280658835441390  4.7977462591125137  7.2121321453654010   T   T   T
 -2.7759637393047738  6.4047445288005260  2.6477257109062280   F   F   F
 -1.3907914372361241  5.6032525352155869  4.9290196597206348   T   T   T
 -0.0021084730688097  4.8116433033729527  7.2282028401473228   T   T   T
 -0.0060246777057485  6.4047445288005260  2.6477257109062280   F   F   F
  1.3762525100141560  5.6022714322159652  4.9289015187332810   T   T   T
  2.7663686797708689  4.8020833762384987  7.2147498643825054   T   T   T
  2.7639974828961416  6.4047445288005260  2.6477257109062280   F   F   F
  4.1471509378067246  5.6041069863363271  4.9255435662821485   T   T   T
  8.3039171555956539  0.0077723115286082  0.3861542053412234   F   F   F
  2.7639559333947390  0.0077723115286082  0.3861542053412234   F   F   F
  5.5339780939966285  0.0077723115286082  0.3861542053412234   F   F   F
  6.9189476247961403  2.4066099058127550  0.3861542053412234   F   F   F
  1.3789864025952261  2.4066099058127550  0.3861542053412234   F   F   F
  4.1490085631971159  2.4066099058127550  0.3861542053412234   F   F   F
  5.5339365444951953  4.8055194659444114  0.3861542053412234   F   F   F
 -0.0060246777057187  4.8055194659444114  0.3861542053412234   F   F   F
  2.7639974828961709  4.8055194659444114  0.3861542053412234   F   F   F
  1.5081764185537938  0.9076354669818605 11.2553984200953057   T   T   T
  0.8323563694323274  2.2731659131983468 11.2099532197304708   T   T   T
  1.9365148303476780 -0.1309404657783086 11.6290822706850818   T   T   T
