Pd  C  O 
 1.0000000000000000
     8.3099002837999993    0.0000000000000000    0.0000000000000000
    -4.1549501418999997    7.1965847487000003    0.0000000000000000
     0.0000000000000000    0.0000000000000000   16.5235004425000014
  36   1   2
Selective dynamics
Cartesian
  8.3016381294846866 -0.0153080749555740  7.2525697784460395   T   T   T
 -0.0059831282043160  1.6069973743847230  2.6477257109062280   F   F   F
  1.3764609820526714  0.8070334499082696  4.9383517571683688   T   T   T
  2.7698855050538507 -0.0030074475567443  7.2437306884866777   T   T   T
  2.7639559333947092  1.6069973743847230  2.6477257109062280   F   F   F
  4.1454760414888607  0.8013823984856434  4.9246044367405863   T   T   T
  5.5302919683849012 -0.0015341171087002  7.2131884855792840   T   T   T
  5.5339780939965992  1.6069973743847230  2.6477257109062280   F   F   F
  6.9172548823951194  0.8041217847802681  4.9365558006609529   T   T   T
  6.8883253574108148  2.3870294010083932  7.2477870274461447   T   T   T
 -1.3909942085052609  4.0059069345163794  2.6477257109062280   F   F   F
 -0.0073215737490530  3.1997482432219346  4.9288210751418617   T   T   T
  1.3852485154288163  2.3840802859145516  7.3269378035090691   T   T   T
  1.3789448530937642  4.0059069345163794  2.6477257109062280   F   F   F
  2.7542843275774400  3.1976619608415877  4.9360489844115634   T   T   T
  4.1447093379697719  2.3989871811310568  7.2071994648390136   T   T   T
  4.1489670136956542  4.0059069345163794  2.6477257109062280   F   F   F
  5.5314546702419802  3.1993889986032764  4.9246134957251559   T   T   T
  5.5222789915969663  4.7902751010633198  7.2032938500578183   T   T   T
 -2.7759637393047738  6.4047445288005260  2.6477257109062280   F   F   F
 -1.3905647548556570  5.6013380071031467  4.9294195280211408   T   T   T
  0.0022666176499273  4.8172865970553449  7.2346920556142260   T   T   T
 -0.0060246777057485  6.4047445288005260  2.6477257109062280   F   F   F
  1.3739789775574820  5.6000567618568997  4.9287747428367341   T   T   T
  2.7687092325654485  4.7986945440740643  7.2089868131074653   T   T   T
  2.7639974828961416  6.4047445288005260  2.6477257109062280   F   F   F
  4.1454442359140726  5.6027258421213402  4.9218887466703816   T   T   T
  8.3039171555956539  0.0077723115286082  0.3861542053412234   F   F   F
  2.7639559333947390  0.0077723115286082  0.3861542053412234   F   F   F
  5.5339780939966285  0.0077723115286082  0.3861542053412234   F   F   F
  6.9189476247961403  2.4066099058127550  0.3861542053412234   F   F   F
  1.3789864025952261  2.4066099058127550  0.3861542053412234   F   F   F
  4.1490085631971159  2.4066099058127550  0.3861542053412234   F   F   F
  5.5339365444951953  4.8055194659444114  0.3861542053412234   F   F   F
 -0.0060246777057187  4.8055194659444114  0.3861542053412234   F   F   F
  2.7639974828961709  4.8055194659444114  0.3861542053412234   F   F   F
  1.4623593538272499  0.8544891954270676 10.4369888597327627   T   T   T
  0.5452980426333778  2.5663585775800275 10.4323385576737291   T   T   T
  1.7926660980482474  0.0039963087082544 11.1925613552140160   T   T   T
