Ag   
   1.00000000000000     
  15.3612477337200009   0.0000000000000000   0.0000000000000000
   0.0000000000000000  15.3612477337200009   0.0000000000000000
   0.0000000000000000   0.0000000000000000  20.0000000000000000
Ag   
2  
Selective dynamics
Direct
  0.6205321901570500  0.1249066419664260  0.6119576324918160 T T T
  0.4406016556728080  0.6252483991290350  0.6115763329184321 T T T
