IS                                      
   1.00000000000000     
    20.0000000000000000    0.0000000000000000    0.0000000000000000
     0.0000000000000000   20.0000000000000000    0.0000000000000000
     0.0000000000000000    0.0000000000000000   20.0000000000000000
   Ni   S 
    55     1
Direct
  0.3499076607716631  0.5960820216374714  0.4102741981914946
  0.4512884949942801  0.6631532992347218  0.3776532258578555
  0.4117216768325207  0.6628026127368329  0.4970870484327037
  0.5127381658239543  0.7235620805900069  0.4645419219221694
  0.5145815002964724  0.6086019519194750  0.4645048859503618
  0.5769589268594046  0.6650822453978975  0.3779332705111784
  0.6155466824445526  0.6653105391005596  0.4970630643335312
  0.3166845569372754  0.5925843741521675  0.5281078714956919
  0.3510472577901993  0.4880011431261195  0.5824350376789482
  0.4149689588248435  0.5426435139334131  0.4964168448945969
  0.4124964236624962  0.5959636896151252  0.6046971157506107
  0.5135396608949421  0.6635005917730865  0.5713343017502837
  0.5144178606835936  0.5429145590432185  0.5704468536732819
  0.6152539873784377  0.5445677580308299  0.4970163779215255
  0.6158746855999198  0.5987179473762296  0.6044914344339531
  0.3926543458743197  0.5938360953372168  0.2955774305315231
  0.3518542895749306  0.4890617601162504  0.3442525942434500
  0.4539747033892709  0.4910183814294129  0.2700497769263634
  0.4534973679345029  0.5426871962403652  0.3789210218311254
  0.5151760907950163  0.5979350202710023  0.2909665250499316
  0.5165143548137721  0.4384656093307981  0.3587822315861047
  0.5791039503098077  0.4923060196402673  0.2706227822902036
  0.5775042228608598  0.5445184537320031  0.3793192624627011
  0.3124595765246241  0.4878604137828830  0.4641080961796291
  0.3516920622179356  0.3811932961794611  0.5172204125779061
  0.4161988048684222  0.4366035247400006  0.4325327721773320
  0.4549383110105794  0.4373739353411423  0.5500525429894978
  0.5158199602787548  0.4906652022752453  0.4646734118097413
  0.5176268771501356  0.3728259898340127  0.4636838489895183
  0.6169225338718718  0.4394881500130126  0.4317849819260289
  0.5778869944762093  0.4381113289041352  0.5501429394635551
  0.6795559490629088  0.6000273021727267  0.4110668958954733
  0.7121093327112291  0.5968512440474569  0.5290875444205199
  0.6802015218401110  0.4923346110565845  0.5839069048847350
  0.6373618515716544  0.5968131552314588  0.2961835651414759
  0.6809273248684349  0.4931203434242164  0.3445901266232596
  0.7195850864362896  0.4933565757925749  0.4639519076709320
  0.6816270604938381  0.3857054131917081  0.5176653798422066
  0.4524045576452664  0.4915775442777246  0.6633222799769456
  0.5144120850617284  0.5964261403434179  0.6724774164552656
  0.5797265826645415  0.4919941479605043  0.6573429808247298
  0.3928540493336286  0.3838748266601826  0.6329023657844601
  0.4543310646721821  0.3172768399929708  0.5495004520476527
  0.5193222796737942  0.3809478054764597  0.6418880196072152
  0.5805166122771368  0.3181248944409063  0.5509920936435648
  0.6409541946093782  0.3870982716420315  0.6319564448309265
  0.4157305051287992  0.3831754865370058  0.3236921524213656
  0.5173702893578351  0.3873020496564408  0.2556494391888577
  0.6190608224788008  0.3856011276330307  0.3239612067324487
  0.3195022096413638  0.3847218217607420  0.3981050525531273
  0.4160302224270822  0.3166321248208419  0.4310367854577635
  0.5180735366955176  0.3178398353613474  0.3564900056665863
  0.6198064487700918  0.3188720470790898  0.4304716292575037
  0.7152446605988771  0.3891498011801460  0.3998714316114942
  0.5190172684518544  0.2580620638718969  0.4634797908946382
  0.4498336207820799  0.4010357825541675  0.7221839847340590
 
  0.00000000E+00  0.00000000E+00  0.00000000E+00
  0.00000000E+00  0.00000000E+00  0.00000000E+00
  0.00000000E+00  0.00000000E+00  0.00000000E+00
  0.00000000E+00  0.00000000E+00  0.00000000E+00
  0.00000000E+00  0.00000000E+00  0.00000000E+00
  0.00000000E+00  0.00000000E+00  0.00000000E+00
  0.00000000E+00  0.00000000E+00  0.00000000E+00
  0.00000000E+00  0.00000000E+00  0.00000000E+00
  0.00000000E+00  0.00000000E+00  0.00000000E+00
  0.00000000E+00  0.00000000E+00  0.00000000E+00
  0.00000000E+00  0.00000000E+00  0.00000000E+00
  0.00000000E+00  0.00000000E+00  0.00000000E+00
  0.00000000E+00  0.00000000E+00  0.00000000E+00
  0.00000000E+00  0.00000000E+00  0.00000000E+00
  0.00000000E+00  0.00000000E+00  0.00000000E+00
  0.00000000E+00  0.00000000E+00  0.00000000E+00
  0.00000000E+00  0.00000000E+00  0.00000000E+00
  0.00000000E+00  0.00000000E+00  0.00000000E+00
  0.00000000E+00  0.00000000E+00  0.00000000E+00
  0.00000000E+00  0.00000000E+00  0.00000000E+00
  0.00000000E+00  0.00000000E+00  0.00000000E+00
  0.00000000E+00  0.00000000E+00  0.00000000E+00
  0.00000000E+00  0.00000000E+00  0.00000000E+00
  0.00000000E+00  0.00000000E+00  0.00000000E+00
  0.00000000E+00  0.00000000E+00  0.00000000E+00
  0.00000000E+00  0.00000000E+00  0.00000000E+00
  0.00000000E+00  0.00000000E+00  0.00000000E+00
  0.00000000E+00  0.00000000E+00  0.00000000E+00
  0.00000000E+00  0.00000000E+00  0.00000000E+00
  0.00000000E+00  0.00000000E+00  0.00000000E+00
  0.00000000E+00  0.00000000E+00  0.00000000E+00
  0.00000000E+00  0.00000000E+00  0.00000000E+00
  0.00000000E+00  0.00000000E+00  0.00000000E+00
  0.00000000E+00  0.00000000E+00  0.00000000E+00
  0.00000000E+00  0.00000000E+00  0.00000000E+00
  0.00000000E+00  0.00000000E+00  0.00000000E+00
  0.00000000E+00  0.00000000E+00  0.00000000E+00
  0.00000000E+00  0.00000000E+00  0.00000000E+00
  0.00000000E+00  0.00000000E+00  0.00000000E+00
  0.00000000E+00  0.00000000E+00  0.00000000E+00
  0.00000000E+00  0.00000000E+00  0.00000000E+00
  0.00000000E+00  0.00000000E+00  0.00000000E+00
  0.00000000E+00  0.00000000E+00  0.00000000E+00
  0.00000000E+00  0.00000000E+00  0.00000000E+00
  0.00000000E+00  0.00000000E+00  0.00000000E+00
  0.00000000E+00  0.00000000E+00  0.00000000E+00
  0.00000000E+00  0.00000000E+00  0.00000000E+00
  0.00000000E+00  0.00000000E+00  0.00000000E+00
  0.00000000E+00  0.00000000E+00  0.00000000E+00
  0.00000000E+00  0.00000000E+00  0.00000000E+00
  0.00000000E+00  0.00000000E+00  0.00000000E+00
  0.00000000E+00  0.00000000E+00  0.00000000E+00
  0.00000000E+00  0.00000000E+00  0.00000000E+00
  0.00000000E+00  0.00000000E+00  0.00000000E+00
  0.00000000E+00  0.00000000E+00  0.00000000E+00
  0.00000000E+00  0.00000000E+00  0.00000000E+00
