Pd  C  O 
 1.0000000000000000
     8.3099002837999993    0.0000000000000000    0.0000000000000000
    -4.1549501418999997    7.1965847487000003    0.0000000000000000
     0.0000000000000000    0.0000000000000000   16.5235004425000014
  36   1   2
Selective dynamics
Cartesian
  8.2978817135379046 -0.0366844980349831  7.2820983287944090   T   T   T
 -0.0059831282043160  1.6069973743847230  2.6477257109062280   F   F   F
  1.3745056517289704  0.8061722664840645  4.9470982011746969   T   T   T
  2.7762512862907918 -0.0135790001316081  7.2663040699808805   T   T   T
  2.7639559333947092  1.6069973743847230  2.6477257109062280   F   F   F
  4.1420102368850742  0.7956871703335430  4.9204750219521856   T   T   T
  5.5262300169650844 -0.0108168655157026  7.2056812898578402   T   T   T
  5.5339780939965992  1.6069973743847230  2.6477257109062280   F   F   F
  6.9153207518343054  0.8013948832564631  4.9434757075203004   T   T   T
  6.8565955100128164  2.3671516890921951  7.2727498145719922   T   T   T
 -1.3909942085052609  4.0059069345163794  2.6477257109062280   F   F   F
 -0.0083096275307900  3.1929139204723991  4.9283678094116325   T   T   T
  1.3956262855784094  2.3594507304870183  7.4314445241060678   T   T   T
  1.3789448530937642  4.0059069345163794  2.6477257109062280   F   F   F
  2.7449984322971299  3.1888637705856948  4.9439901423981825   T   T   T
  4.1400551836810342  2.3912185448872805  7.1956897009254206   T   T   T
  4.1489670136956542  4.0059069345163794  2.6477257109062280   F   F   F
  5.5288602208602393  3.1925938435337695  4.9202474476009401   T   T   T
  5.5106686462799024  4.7755871910772454  7.1859375030687520   T   T   T
 -2.7759637393047738  6.4047445288005260  2.6477257109062280   F   F   F
 -1.3901298428472155  5.5975472746412818  4.9302318707764794   T   T   T
  0.0109468360705609  4.8292840987484178  7.2474943962895964   T   T   T
 -0.0060246777057485  6.4047445288005260  2.6477257109062280   F   F   F
  1.3694223999030737  5.5956323607967606  4.9285952167163414   T   T   T
  2.7730322780164585  4.7912770810481637  7.1982624438171436   T   T   T
  2.7639974828961416  6.4047445288005260  2.6477257109062280   F   F   F
  4.1420458707892145  5.6000784011604443  4.9147220988828568   T   T   T
  8.3039171555956539  0.0077723115286082  0.3861542053412234   F   F   F
  2.7639559333947390  0.0077723115286082  0.3861542053412234   F   F   F
  5.5339780939966285  0.0077723115286082  0.3861542053412234   F   F   F
  6.9189476247961403  2.4066099058127550  0.3861542053412234   F   F   F
  1.3789864025952261  2.4066099058127550  0.3861542053412234   F   F   F
  4.1490085631971159  2.4066099058127550  0.3861542053412234   F   F   F
  5.5339365444951953  4.8055194659444114  0.3861542053412234   F   F   F
 -0.0060246777057187  4.8055194659444114  0.3861542053412234   F   F   F
  2.7639974828961709  4.8055194659444114  0.3861542053412234   F   F   F
  1.4218295997026931  0.6100217608118889  8.9836298478253127   T   T   T
 -0.0294783324776383  3.1532128538725672  8.8802342471081435   T   T   T
  1.4548322966555507  0.4109370834372759 10.1427787734123260   T   T   T
