initial\(6)                             
   1.00000000000000     
     8.3099002837999993    0.0000000000000000    0.0000000000000000
    -4.1549501418999997    7.1965847487000003    0.0000000000000000
     0.0000000000000000    0.0000000000000000   16.5235004425000014
   Pd   C    O 
    36     1     2
Selective dynamics
Direct
  1.0077583237787495  0.0162121857108439  0.4509342039775363   T   T   T
  0.1109300000000064  0.2233000000000082  0.1602400000000017   F   F   F
  0.2232369948835401  0.1153495252560694  0.2987501502804863   T   T   T
  0.3429173816758992  0.0109455896600353  0.4402803819995881   T   T   T
  0.4442600000000034  0.2233000000000082  0.1602400000000017   F   F   F
  0.5558925303528199  0.1142168665170113  0.2987184681357944   T   T   T
  0.6702286484651157  0.0080630176434729  0.4357825645913030   T   T   T
  0.7776000000000067  0.2233000000000082  0.1602400000000017   F   F   F
  0.8913119752678181  0.1149153244841087  0.2994601196898792   T   T   T
  0.9978546431118644  0.3534774985328137  0.4373435914098135   T   T   T
  0.1109300000000037  0.5566400000000024  0.1602400000000017   F   F   F
  0.2233821755411231  0.4481500465198027  0.2969138301756481   T   T   T
  0.3507868234957440  0.3551722662916167  0.4388417552860444   T   T   T
  0.4442600000000008  0.5566400000000024  0.1602400000000017   F   F   F
  0.5563623088388181  0.4481731104203199  0.2990016697458082   T   T   T
  0.6722784092253563  0.3453480810713946  0.4357456915769396   T   T   T
  0.7776000000000004  0.5566400000000024  0.1602400000000017   F   F   F
  0.8905184405328644  0.4492856070387701  0.2992008703907976   T   T   T
  1.0052153643241957  0.6823172816659943  0.4403736379986569   T   T   T
  0.1109300000000155  0.8899700000000234  0.1602400000000017   F   F   F
  0.2231122747349224  0.7815475247783917  0.2979780432612239   T   T   T
  0.3411380680520031  0.6798630110538690  0.4352129830317567   T   T   T
  0.4442600000000129  0.8899700000000234  0.1602400000000017   F   F   F
  0.5572190059708497  0.7816843711235951  0.2972793614275839   T   T   T
  0.6753954536822059  0.6806118772255446  0.4359122716481428   T   T   T
  0.7776000000000114  0.8899700000000234  0.1602400000000017   F   F   F
  0.8923550101290837  0.7848910778572186  0.2995776753334191   T   T   T
  0.9998199999999996  0.0010800000000018  0.0233699999999999   F   F   F
  0.3331500000000043  0.0010800000000018  0.0233699999999999   F   F   F
  0.6664900000000035  0.0010800000000018  0.0233699999999999   F   F   F
  0.9998200000000027  0.3344100000000086  0.0233699999999999   F   F   F
  0.3331500000000071  0.3344100000000086  0.0233699999999999   F   F   F
  0.6664900000000124  0.3344100000000086  0.0233699999999999   F   F   F
  0.9998200000000106  0.6677500000000186  0.0233699999999999   F   F   F
  0.3331500000000134  0.6677500000000186  0.0233699999999999   F   F   F
  0.6664900000000099  0.6677500000000186  0.0233699999999999   F   F   F
  0.1684597939799449 -0.0313552478583196  0.5298417105053054   T   T   T
  0.1372901487546537  0.2881569939559491  0.5120344791513837   T   T   T
  0.1783499929093955  0.9862241066543871  0.6010450151015485   T   T   T
 
             NaN             NaN             NaN
             NaN             NaN             NaN
             NaN             NaN             NaN
             NaN             NaN             NaN
             NaN             NaN             NaN
             NaN             NaN             NaN
             NaN             NaN             NaN
             NaN             NaN             NaN
             NaN             NaN             NaN
             NaN             NaN             NaN
             NaN             NaN             NaN
             NaN             NaN             NaN
             NaN             NaN             NaN
             NaN             NaN             NaN
             NaN             NaN             NaN
             NaN             NaN             NaN
             NaN             NaN             NaN
             NaN             NaN             NaN
             NaN             NaN             NaN
             NaN             NaN             NaN
             NaN             NaN             NaN
             NaN             NaN             NaN
             NaN             NaN             NaN
             NaN             NaN             NaN
             NaN             NaN             NaN
             NaN             NaN             NaN
             NaN             NaN             NaN
             NaN             NaN             NaN
             NaN             NaN             NaN
             NaN             NaN             NaN
             NaN             NaN             NaN
             NaN             NaN             NaN
             NaN             NaN             NaN
             NaN             NaN             NaN
             NaN             NaN             NaN
             NaN             NaN             NaN
             NaN             NaN             NaN
             NaN             NaN             NaN
             NaN             NaN             NaN
