Li   F                                  
    1.000000000000000     
    12.0789003372000003    0.0000000000000000    0.0000000000000000
     0.0000000000000000   12.0789003372000003    0.0000000000000000
     0.0000000000000000    0.0000000000000000   12.0789003372000003
   Li   F 
   108   108
Direct
  0.0001814146258897  0.9997853109663543  1.0000758149632134
  0.0002525482863267 -0.0000247001776604  0.3261833826598148
  0.0009156994766922 -0.0000120466378537  0.6709815694444213
  0.0012774558825856  0.3260012504404944  0.0002525807153106
  0.9995697021838559  0.3263757070744705  0.3259337086839910
  0.0021038636899052  0.3260480050225860  0.6739591470615487
  0.0003373903288731  0.6709947916182912 -0.0002290387181935
  0.0013096831451741  0.6747067420482077  0.3264343063074909
  0.9994649189898147  0.6725022031508390  0.6714887130729958
  0.3293791911131001  0.9996035575406688  0.9997646377657141
  0.3293098042057553  0.0001299458608705  0.3277514985742212
  0.3297185450310341  0.0002473183891003  0.6716041179952360
  0.3294176162053832  0.3275726072249607  0.0002580779051584
  0.3298128591485844  0.3283284430183157  0.3284906793627034
  0.3306339973373823  0.3288364185889389  0.6717958111155968
  0.3296470301923188  0.6713963281600805  0.0003486380194016
  0.3304673949540824  0.6716540697131805  0.3290614743983690
  0.3291452291610984  0.6699799405011251  0.6701913682620290
  0.6710819445099427  0.9995717018929205  0.9997261979296672
  0.6713439228174496  0.9995783706291230  0.3282593133052031
  0.6698397685761335  1.0002652830215244  0.6709761426038937
  0.6710276863405970  0.3281388866893466  0.9985462419363956
  0.6724646239375536  0.3286336196906489  0.3279294604732164
  0.6727484175453703  0.3296447727098532  0.6711446400938583
  0.6709785264101332  0.6707673486662320  0.9997145477216848
  0.6722887447003180  0.6699885524965087  0.3297630400529246
  0.6725336595861267  0.6714074792605895  0.6704727865472290
  1.0000875243892891  0.1696208429847980  0.1699259985164215
  0.0002305810835127  0.1698602887934736  0.4995919020398043
  0.0006753249403882  0.1545741825890405  0.8294059880380193
  0.0002086394155246  0.4995723496135886  0.1700398610071832
  0.9722602294666554  0.4776760039440365  0.4776512662889863
  0.0007071482506461  0.4999018686753557  0.8485906645334003
  0.0001992647582631  0.8292441647383865  0.1558005192789788
  0.0002372380675273  0.8485245040750525  0.4991453449042692
  0.9999661971623282  0.8282417866085084  0.8282909738349307
  0.3295178550574621  0.1702720451331406  0.1704942595884777
  0.3305366836522819  0.1706813875400362  0.4998451865977735
  0.3298991874235179  0.1702754298897180  0.8288406145329243
  0.3305254641695234  0.4997010267732641  0.1708582372021687
  0.3517663732836745  0.5002637109252591  0.5004168577457285
  0.3457592570671071  0.4995835797967344  0.8471361937401437
  0.3297629384724728  0.8286521129145424  0.1705307717272044
  0.3456651129520846  0.8469877704598153  0.4997020619174952
  0.3302520552079420  0.8285855560667950  0.8287732628054305
  0.6712016348506102  0.1702658861319958  0.1703664075205925
  0.6707748800319862  0.1694162351234214  0.4996176496803016
  0.6717985986109030  0.1712502188302638  0.8286976074231984
  0.6708175492776873  0.4995381777964739  0.1693340391421485
  0.6717358041378193  0.4998029649391414  0.4998636400553709
  0.6732435632754301  0.4992647014928966  0.8274913660008856
  0.6711987332975776  0.8285179496256926  0.1704304707182769
  0.6728974031046389  0.8274197590249385  0.4998714811463221
  0.6713386532413259  0.8283679414687162  0.8284349779171161
  0.1712009123216969  0.9996335336136437  0.1704404814463105
  0.1729807340680628  0.0012173788083967  0.4995870906768861
  0.1723583087814660  0.9992284293262658  0.8288641706666048
  0.1714039348143487  0.3282036563474409  0.1699761918041321
  0.1721690924002832  0.3211733093109326  0.5007197834527072
  0.1708770021932721  0.3275509884403700  0.8294717922064889
  0.1718802105323835  0.6711833365571616  0.1698107851480612
  0.1731629245113876  0.6965122351713730  0.4993593324367574
  0.1720931110554174  0.6704691846366745  0.8297903634354218
  0.5002157177323225  0.9996291284570504  0.1705900841597288
  0.5015542366202822  0.0011077543434329  0.4997098633395660
  0.5002717235613215  0.9996699674053374  0.8286141957850961
  0.5002531465012829  0.3282893327307213  0.1706226535490506
  0.5012844848654445  0.3272632551954672  0.4996817210835470
  0.5010001657323243  0.3275760311212416  0.8286268044562453
  0.5002743261176686  0.6705245087268205  0.1707421017261862
  0.5013328060161455  0.6715451582560629  0.4997579600101589
  0.5008206068169433  0.6715333397630133  0.8286239901762661
  0.8291239805991384  0.9996157508816289  0.1701751684337928
  0.8279988267925321  0.0005666130049768  0.4989092452774250
  0.8279785378252926  0.9997701340408182  0.8299288819619535
  0.8288782647994365  0.3276078882874331  0.1559634304204638
  0.8253389502114881  0.3249343901205234  0.4994277295052131
  0.8463510187734871  0.3274521274920548  0.8285809665610736
  0.8292542161957039  0.6708045818574551  0.1704437128174431
  0.8503407674990883  0.6737566448353755  0.5015210105556405
  0.8281480107409149  0.6724376363855294  0.8297425394222844
  0.1713119356626663  0.1701249012800288  0.9997802201969561
  0.1713215776459612  0.1698098874657793  0.3283860364992086
  0.1720426667667763  0.1694139476128526  0.6713644654018252
  0.1730482515424030  0.4994809193189056  0.0013839314958492
  0.1721149037994713  0.5006352938491501  0.3213799862270596
  0.1733061960386218  0.4992821498629054  0.6967503347467007
  0.1722406264267303  0.8286516134887874  0.9994441454914352
  0.1704319341231857  0.8294282025311936  0.3277417029127755
  0.1720665678516649  0.8297393268246916  0.6706219898173090
  0.5002287046356034  0.1703700513504882  0.9997274197279350
  0.5002630833116610  0.1706288459998364  0.3284431421385308
  0.5002762406245715  0.1706802122116864  0.6708010374607838
  0.5016055793430503  0.4995955558890256  0.0011722964099348
  0.5012013300139192  0.4995370650347435  0.3273618632274590
  0.5013828188869459  0.4996650434702722  0.6716820992360855
  0.5002637654045990  0.8283845465063726  0.9997447221426549
  0.5007875200512028  0.8284694781987076  0.3277081480809678
  0.5007025265381114  0.8285965099716296  0.6717269639116374
  0.8290934892324899  0.1686738132320754  0.9992579924694194
  0.8288776844929940  0.1700199182486730  0.3270808464063926
  0.8291304280431203  0.1706335774073911  0.6709812498303407
  0.8280175204930449  0.5000271271609947  0.9997418183836851
  0.8253395252988267  0.4988290897608174  0.3245025232241295
  0.8500658002949837  0.5001424560612122  0.6733518314739736
  0.8280023752218955  0.8289058671651769  0.9994145022253678
  0.8318495983497162  0.8288006909912948  0.3277697411432387
  0.8278877112368486  0.8436406450067044  0.6718702798184526
  0.0012182198049719  0.1631938746059186  0.0014315811982879
  0.0026945838488256  0.1669939246279178  0.3311885479002141
  0.0020912415622671  0.1650460522156013  0.6666663626724997
  0.0015266395705658  0.4980971943283199  0.0034510555693869
  0.0084531333372265  0.4980561480992801  0.3316271577469371
  0.0262637923303168  0.4705022403862795  0.7059031022628216
  0.0015617810435550  0.8313933267975040  0.9975468909922357
  0.0003409830491131  0.8409480194872598  0.3182768020427240
  0.0035354074249485  0.8357345450088509  0.6668091585135972
  0.3330499209088212  0.1664641707566315  0.9998141312384445
  0.3324093243376879  0.1681905812349334  0.3318794731540040
  0.3340980873737476  0.1671506937421509  0.6668913942349823
  0.3372718179746191  0.4988346246161878  0.0047109664330481
  0.3298702275260353  0.4981728478247283  0.3372566381107070
  0.3306874054332659  0.4988846199739155  0.6627777015943245
  0.3333511405761576  0.8312860180116242  0.9990988446861423
  0.3347564522341227  0.8328375044532977  0.3317117829639260
  0.3350393458325558  0.8316989632233247  0.6669187904383714
  0.6678962304356830  0.1666435964929320  0.9988487932471246
  0.6672624885775000  0.1664365595825329  0.3307931307255141
  0.6683320544942914  0.1669910415516961  0.6671029828567506
  0.6681544797037217  0.4985892672225289  1.0001100856098497
  0.6632406731451186  0.4992545982849259  0.3254948775509177
  0.6724410493136366  0.4990262984459760  0.6664948683315502
  0.6671675714116413  0.8313811333390411  0.9995884979263360
  0.6690551710924686  0.8310592023461836  0.3311913912118276
  0.6640459771589711  0.8369383196463730  0.6668776439582219
  0.0011253912581846  0.0013508596961104  0.1635850630293463
  0.0013737153916191  0.0038366483310804  0.4987239372346347
  0.0016310484373521  0.9971016283594849  0.8316725087283902
  0.0030563436575459  0.3310575261229764  0.1657414265444173
  0.0083792442946772  0.3315694138765647  0.4982395963505707
  0.0032087952936728  0.3171180509922633  0.8413863440160881
  0.0017422758179406  0.6662390448020823  0.1652178577742551
  0.0253015151361505  0.7047901107499699  0.4722716920070674
  0.0029606416518758  0.6669023332689497  0.8338904333033685
  0.3330036746914893  0.9993652314985366  0.1668998200315429
  0.3372045417372342  0.0044055062385135  0.4990845858086177
  0.3334258460697453  0.9985750973815614  0.8317443253486938
  0.3324311087874675  0.3315568111415212  0.1685196933548664
  0.3299549373502751  0.3369384172998102  0.4984402699430676
  0.3348240305685721  0.3313752251520124  0.8331294941920667
  0.3339440489159989  0.6665518757148071  0.1674745825650109
  0.3306256181470303  0.6623529622669390  0.4992515197411803
  0.3351017556876519  0.6666343007682871  0.8320093805061608
  0.6676230185293643  0.9987653942286548  0.1668667898654835
  0.6678300265218123  1.0006802499188392  0.4988573033978798
  0.6673842407232355  0.9998759202533259  0.8316852733148684
  0.6673307197395648  0.3308582877707695  0.1645412592177355
  0.6635755596116275  0.3255964927142282  0.4996553729084265
  0.6699348119908475  0.3312578029745114  0.8312383740126876
  0.6682242450142494  0.6667999433055644  0.1669567662585095
  0.6710889131437472  0.6665746363586095  0.4985086795159345
  0.6652196698391007  0.6667391618136498  0.8346240357391230
  0.1691261641844997  0.1676606442668827  0.1680189858282665
  0.1698789859050168  0.1658974145791380  0.4984508580328900
  0.1703333084128139  0.1644901899677631  0.8318708595451663
  0.1698876318736157  0.4982334393536502  0.1661704268621196
  0.9382510558289380  0.5746839212749606  0.5767267011334595
  0.1817335283939129  0.5004308752353980  0.8462552621476346
  0.1699958829198106  0.8314737165286877  0.1652245835785844
  0.1814778658529930  0.8458706158610200  0.5004919745891071
  0.1697481167381579  0.8304895258937087  0.8308601344667030
  0.4998738485473509  0.1668531214213651  0.1671262246888409
  0.4987233954755356  0.1675080800480456  0.4990683429705584
  0.5005336588429692  0.1668727511942969  0.8314713608335206
  0.4987078778929923  0.4987975137613024  0.1676183765632855
  0.5044728149844373  0.4989356687532274  0.4993746055347060
  0.5022426325994317  0.4984917586772420  0.8322447569089702
  0.5005151639641183  0.8310760976981464  0.1671340761816482
  0.5020647350104507  0.8321315392386482  0.4986338191294245
  0.5000898127127453  0.8315689895437540  0.8319085360244410
  0.8324301163694469  0.1654386543385730  0.1640085931617948
  0.8337037660708111  0.1671611985939434  0.4985915259708968
  0.8334679343114118  0.1642872995473577  0.8314006681775711
  0.8336343478683960  0.4989380310756116  0.1652767039374558
  0.8174142498011858  0.4713619035691072  0.4713235367838778
  0.8360593039618186  0.4991654480992083  0.8346246485096777
  0.8319335408809556  0.8311172105595399  0.1643818016567506
  0.8345320080924674  0.8369165384935604  0.4980445877229377
  0.8327453072691361  0.8372025385040873  0.8359977351128045
  0.1688237758942318  0.9982296377584731  0.9986750768644674
  0.1695215666064962  0.0009699456380903  0.3307216901449820
  0.1694481091538878  0.0007878835259341  0.6678697379151602
  0.1698969563326708  0.3303376120601937  0.0013178414825082
  0.1685945092093148  0.3359069964880462  0.3361057916538291
  0.1748841085741061  0.3280541430866500  0.6640458471344832
  0.1691300014313146  0.6675271274877693  0.0008756039484235
  0.1744940235746135  0.6639691821009432  0.3288124082872736
  0.1681389032005754  0.6644176000560000  0.6646694122940783
  0.5002149271612902  0.9990712486449799  0.9994580718123383
  0.5004895375708366  0.9989489250648413  0.3315989997595629
  0.4995658204906107  1.0000172900835766  0.6667092448200147
  0.5003021836914026  0.3312956454420641  0.9990441072189987
  0.4986521750449479  0.3317248264182892  0.3317940941463323
  0.4993899219376188  0.3325435781650016  0.6669748557992690
  0.4999713080986529  0.6663238587480431  0.9998701226399687
  0.4991881329748702  0.6666262917933716  0.3326723849185391
  0.5002266491082954  0.6660197656242932  0.6661450348783929
  0.8324044928329771  0.9991446902475185  0.9993438898475390
  0.8323518326538125  0.0011631274627980  0.3307625293820335
  0.8330449634327364  0.0019279888155257  0.6669287883468790
  0.8337917211523062  0.3307481955266433  0.9981124181988246
  0.8350813494249885  0.3255339960198508  0.3217189829629544
  0.8374894097544673  0.3309541379819671  0.6660431878163797
  0.8332103217287365  0.6669011086268299  0.9992906744722244
  0.8358907972517629  0.6655374266287459  0.3311899040159195
  0.8226305448168261  0.6887689698754451  0.6806437194963008
 
             NaN             NaN             NaN
             NaN             NaN             NaN
             NaN             NaN             NaN
             NaN             NaN             NaN
             NaN             NaN             NaN
             NaN             NaN             NaN
             NaN             NaN             NaN
             NaN             NaN             NaN
             NaN             NaN             NaN
             NaN             NaN             NaN
             NaN             NaN             NaN
             NaN             NaN             NaN
             NaN             NaN             NaN
             NaN             NaN             NaN
             NaN             NaN             NaN
             NaN             NaN             NaN
             NaN             NaN             NaN
             NaN             NaN             NaN
             NaN             NaN             NaN
             NaN             NaN             NaN
             NaN             NaN             NaN
             NaN             NaN             NaN
             NaN             NaN             NaN
             NaN             NaN             NaN
             NaN             NaN             NaN
             NaN             NaN             NaN
             NaN             NaN             NaN
             NaN             NaN             NaN
             NaN             NaN             NaN
             NaN             NaN             NaN
             NaN             NaN             NaN
             NaN             NaN             NaN
             NaN             NaN             NaN
             NaN             NaN             NaN
             NaN             NaN             NaN
             NaN             NaN             NaN
             NaN             NaN             NaN
             NaN             NaN             NaN
             NaN             NaN             NaN
             NaN             NaN             NaN
             NaN             NaN             NaN
             NaN             NaN             NaN
             NaN             NaN             NaN
             NaN             NaN             NaN
             NaN             NaN             NaN
             NaN             NaN             NaN
             NaN             NaN             NaN
             NaN             NaN             NaN
             NaN             NaN             NaN
             NaN             NaN             NaN
             NaN             NaN             NaN
             NaN             NaN             NaN
             NaN             NaN             NaN
             NaN             NaN             NaN
             NaN             NaN             NaN
             NaN             NaN             NaN
             NaN             NaN             NaN
             NaN             NaN             NaN
             NaN             NaN             NaN
             NaN             NaN             NaN
             NaN             NaN             NaN
             NaN             NaN             NaN
             NaN             NaN             NaN
             NaN             NaN             NaN
             NaN             NaN             NaN
             NaN             NaN             NaN
             NaN             NaN             NaN
             NaN             NaN             NaN
             NaN             NaN             NaN
             NaN             NaN             NaN
             NaN             NaN             NaN
             NaN             NaN             NaN
             NaN             NaN             NaN
             NaN             NaN             NaN
             NaN             NaN             NaN
             NaN             NaN             NaN
             NaN             NaN             NaN
             NaN             NaN             NaN
             NaN             NaN             NaN
             NaN             NaN             NaN
             NaN             NaN             NaN
             NaN             NaN             NaN
             NaN             NaN             NaN
             NaN             NaN             NaN
             NaN             NaN             NaN
             NaN             NaN             NaN
             NaN             NaN             NaN
             NaN             NaN             NaN
             NaN             NaN             NaN
             NaN             NaN             NaN
             NaN             NaN             NaN
             NaN             NaN             NaN
             NaN             NaN             NaN
             NaN             NaN             NaN
             NaN             NaN             NaN
             NaN             NaN             NaN
             NaN             NaN             NaN
             NaN             NaN             NaN
             NaN             NaN             NaN
             NaN             NaN             NaN
             NaN             NaN             NaN
             NaN             NaN             NaN
             NaN             NaN             NaN
             NaN             NaN             NaN
             NaN             NaN             NaN
             NaN             NaN             NaN
             NaN             NaN             NaN
             NaN             NaN             NaN
             NaN             NaN             NaN
             NaN             NaN             NaN
             NaN             NaN             NaN
             NaN             NaN             NaN
             NaN             NaN             NaN
             NaN             NaN             NaN
             NaN             NaN             NaN
             NaN             NaN             NaN
             NaN             NaN             NaN
             NaN             NaN             NaN
             NaN             NaN             NaN
             NaN             NaN             NaN
             NaN             NaN             NaN
             NaN             NaN             NaN
             NaN             NaN             NaN
             NaN             NaN             NaN
             NaN             NaN             NaN
             NaN             NaN             NaN
             NaN             NaN             NaN
             NaN             NaN             NaN
             NaN             NaN             NaN
             NaN             NaN             NaN
             NaN             NaN             NaN
             NaN             NaN             NaN
             NaN             NaN             NaN
             NaN             NaN             NaN
             NaN             NaN             NaN
             NaN             NaN             NaN
             NaN             NaN             NaN
             NaN             NaN             NaN
             NaN             NaN             NaN
             NaN             NaN             NaN
             NaN             NaN             NaN
             NaN             NaN             NaN
             NaN             NaN             NaN
             NaN             NaN             NaN
             NaN             NaN             NaN
             NaN             NaN             NaN
             NaN             NaN             NaN
             NaN             NaN             NaN
             NaN             NaN             NaN
             NaN             NaN             NaN
             NaN             NaN             NaN
             NaN             NaN             NaN
             NaN             NaN             NaN
             NaN             NaN             NaN
             NaN             NaN             NaN
             NaN             NaN             NaN
             NaN             NaN             NaN
             NaN             NaN             NaN
             NaN             NaN             NaN
             NaN             NaN             NaN
             NaN             NaN             NaN
             NaN             NaN             NaN
             NaN             NaN             NaN
             NaN             NaN             NaN
             NaN             NaN             NaN
             NaN             NaN             NaN
             NaN             NaN             NaN
             NaN             NaN             NaN
             NaN             NaN             NaN
             NaN             NaN             NaN
             NaN             NaN             NaN
             NaN             NaN             NaN
             NaN             NaN             NaN
             NaN             NaN             NaN
             NaN             NaN             NaN
             NaN             NaN             NaN
             NaN             NaN             NaN
             NaN             NaN             NaN
             NaN             NaN             NaN
             NaN             NaN             NaN
             NaN             NaN             NaN
             NaN             NaN             NaN
             NaN             NaN             NaN
             NaN             NaN             NaN
             NaN             NaN             NaN
             NaN             NaN             NaN
             NaN             NaN             NaN
             NaN             NaN             NaN
             NaN             NaN             NaN
             NaN             NaN             NaN
             NaN             NaN             NaN
             NaN             NaN             NaN
             NaN             NaN             NaN
             NaN             NaN             NaN
             NaN             NaN             NaN
             NaN             NaN             NaN
             NaN             NaN             NaN
             NaN             NaN             NaN
             NaN             NaN             NaN
             NaN             NaN             NaN
             NaN             NaN             NaN
             NaN             NaN             NaN
             NaN             NaN             NaN
             NaN             NaN             NaN
             NaN             NaN             NaN
             NaN             NaN             NaN
             NaN             NaN             NaN
             NaN             NaN             NaN
             NaN             NaN             NaN
             NaN             NaN             NaN
             NaN             NaN             NaN
             NaN             NaN             NaN
             NaN             NaN             NaN
             NaN             NaN             NaN
             NaN             NaN             NaN
             NaN             NaN             NaN
