Li   F 
    1.000000000000000     
  12.0789003372000003   0.0000000000000000   0.0000000000000000
   0.0000000000000000  12.0789003372000003   0.0000000000000000
   0.0000000000000000   0.0000000000000000  12.0789003372000003
Li   F 
108  108  
Direct
  0.0000607820343177  0.9997113498735570  0.9998932778916010  
  0.0002183352556742  0.0005734315955408  0.3265770223977280  
  0.0003498920886216  0.0002505244320332  0.6716690024540170  
  0.0002135199046975  0.3264275687232750  0.0004612377583726  
  0.9997651415295220  0.3263925535333950  0.3262517741742530  
  0.0013635375898033  0.3268250655842020  0.6740845080396840  
  0.0001801284187266  0.6716446169346210  0.0000280684728082  
  0.0013850372217519  0.6740601113892170  0.3270799269150540  
  0.9999927848905590  0.6721988718512790  0.6666949930845690  
  0.3289520996425850  0.9996986736495830  0.9997229214451980  
  0.3290707397756590  0.0002314945791042  0.3277250431808270  
  0.3292780692106230  0.0003204710030573  0.6716086484638520  
  0.3290428414461740  0.3276811613718710  0.0002463203379506  
  0.3333152249591650  0.3284460876011010  0.3284568826392660  
  0.3335064754186590  0.3289677126050850  0.6717446110607100  
  0.3289360218092770  0.6715700824382220  0.0001900877189769  
  0.3337857312206300  0.6717087530570610  0.3288226908659270  
  0.3289138429718930  0.6701553130773520  0.6701387502244101  
  0.6706722638049530  0.9995019797873890  0.9996859704082010  
  0.6710467268542640  0.9993728462250570  0.3281127041009810  
  0.6703460783671600  0.9997997286112220  0.6711257573615010  
  0.6710769490396660  0.3279257512912890  0.9992276232150989  
  0.6718395661767290  0.3286737625552550  0.3284145265086240  
  0.6720882070500310  0.3294991291693710  0.6701174449453050  
  0.6708619148614550  0.6711072512985790  0.9994867154077129  
  0.6719269496031610  0.6700566370556520  0.3293612334153200  
  0.6715329151764070  0.6709297282474220  0.6705848686603910  
  0.9998991214466389  0.1699205035508340  0.1699443212413670  
  0.0000903357728674  0.1700109137168080  0.4996910178108680  
  0.0001246572108542  0.1648575327045950  0.8294705127538220  
  0.0000771945456748  0.4996917631553260  0.1699836203205080  
  0.9718493016223060  0.4772994649761770  0.4773721193942750  
  0.0002491481974403  0.4995221381981950  0.8484106638107960  
  0.0001142460719947  0.8293983095918950  0.1648894886884520  
  0.0002320944431560  0.8487808096553739  0.4992468519646490  
  0.9998075493251410  0.8283286771396730  0.8283754089590470  
  0.3291896414288400  0.1704289369249210  0.1704675861514460  
  0.3336478839088030  0.1707701537585540  0.4998211859189250  
  0.3294449008578790  0.1704949776165280  0.8287996803194420  
  0.3336568227503920  0.4997974410055120  0.1708005713739740  
  0.3516938360665380  0.5003620602066901  0.5003659582381560  
  0.3453133410771090  0.4997002507155060  0.8470415990479410  
  0.3294360279067450  0.8287696133092550  0.1705315923424280  
  0.3453548829027180  0.8470475314530930  0.4996997793876400  
  0.3332587871108360  0.8287373388040040  0.8287473658497500  
  0.6709001028597830  0.1702545768797490  0.1702654259951690  
  0.6705573933480690  0.1659644541006740  0.4996181131891650  
  0.6710060889001500  0.1705741210378380  0.8286951430093979  
  0.6705769338094290  0.4996155362483420  0.1658384128241370  
  0.6712878283579610  0.4998551316667270  0.4998414020062970  
  0.6726643962633860  0.4997588131126140  0.8274021055461350  
  0.6710034239843240  0.8286313942351530  0.1705883456614570  
  0.6726410210415490  0.8274157161459430  0.4997431575167820  
  0.6711837178591300  0.8284681488522950  0.8284518602042180  
  0.1708879260645450  0.9997677140214311  0.1704206565905080  
  0.1728552466354360  0.0014968104638626  0.4996350296496890  
  0.1715286273141740  0.9995234669083430  0.8288559782985840  
  0.1713215520484110  0.3285536704175770  0.1702501766439040  
  0.1723099478190090  0.3211689275098240  0.5007280635616600  
  0.1709697236655360  0.3281575725474400  0.8293458855409740  
  0.1718566338590220  0.6710349365834030  0.1700252444488580  
  0.1733880090467610  0.6966406706534300  0.4991765492164720  
  0.1716462429356230  0.6708345197078170  0.8296334748721180  
  0.4999766032979170  0.9996830969516990  0.1704992511461190  
  0.5013144554353560  0.0008695336546722  0.4996945481436730  
  0.5001115871302630  0.9998511983948010  0.8285529420294400  
  0.5002940555021380  0.3281987488685590  0.1702402825675480  
  0.5015033690068550  0.3273212650789290  0.4996612456792770  
  0.5007395383710930  0.3276480938899550  0.8287829487533360  
  0.5002413840511650  0.6709141285992219  0.1665672956331790  
  0.5012288977397290  0.6716358565000961  0.4997595309544920  
  0.5006413984276530  0.6714635662528320  0.8285173238984100  
  0.8288311697458040  0.9995676148300130  0.1703644046026800  
  0.8280351281232750  0.0001990275002584  0.4993760780210930  
  0.8282838079271500  0.9996838530545770  0.8291204378588120  
  0.8285918275390221  0.3274979267074800  0.1651862757557940  
  0.8249121040564090  0.3246708103525930  0.4995092584732530  
  0.8339365873888200  0.3279709857712520  0.8290150766225250  
  0.8289696171796880  0.6708952527668610  0.1704145932384980  
  0.8495964454994720  0.6735612687114170  0.5008046590859080  
  0.8282459545612970  0.6720561813104100  0.8306985294542950  
  0.1708854496073400  0.1703416799564220  0.9997906885903450  
  0.1713229466828140  0.1702702353861550  0.3286035464993870  
  0.1719072158346720  0.1699852353786260  0.6711025916652390  
  0.1728113017807330  0.4996093217412470  0.0014767982880102  
  0.1723200077034550  0.5006901650739410  0.3212094781553390  
  0.1731853746614010  0.4992503663198210  0.6966411145010200  
  0.1714968509906000  0.8288147843562680  0.9995414832831320  
  0.1710387409791570  0.8293982909872070  0.3281622789374910  
  0.1718862420868850  0.8298835143886190  0.6708675055196380  
  0.4999753712939000  0.1704137978154140  0.9997074459995470  
  0.5002946988952960  0.1703161520620140  0.3282151632549170  
  0.5002743193494010  0.1704060214491250  0.6709256578413800  
  0.5013282606832730  0.4995247562260160  0.0007643343117110  
  0.5015157433028680  0.4998161401649530  0.3271964698549820  
  0.5012222715086520  0.4998351831576140  0.6716288370791050  
  0.5001159195224860  0.8287923490664540  0.9997040027681550  
  0.5007590222979910  0.8285141071181390  0.3275319607225530  
  0.5006184407408580  0.8286431695050570  0.6714553808973780  
  0.8288271254229610  0.1660722428485360  0.9996343623375520  
  0.8286069164657019  0.1691147901782700  0.3274931936612260  
  0.8289297332699590  0.1704886295982180  0.6709725214014810  
  0.8280855581857550  0.4996468999339290  0.9999194091255180  
  0.8249019013373911  0.4993008058790950  0.3244839303445420  
  0.8498895239067890  0.5004455593083960  0.6736020063493560  
  0.8283054344981839  0.8290015487945080  0.9996670109241210  
  0.8338777479674140  0.8288405040342610  0.3281332699024660  
  0.8278159412944390  0.8347623260610180  0.6718789215297890  
  0.0004779900247982  0.1641543868022740  0.0016285052396512  
  0.0022247680058030  0.1672080565508980  0.3314149081400400  
  0.0012965713902417  0.1666013202507490  0.6667718967119640  
  0.0008188643070923  0.4989175005808090  0.0039023343030777  
  0.0079531656195684  0.4983663980031570  0.3317083010498580  
  0.0257723661213518  0.4721202640322130  0.7045328037813690  
  0.0009087165746209  0.8317582086461210  0.9991258098658380  
  0.0004085789508252  0.8413763744476770  0.3215441312631530  
  0.0025129248253109  0.8350206940454190  0.6667381940563710  
  0.3324516889095010  0.1668010489696530  0.9997351942323009  
  0.3327157113700420  0.1684083154204500  0.3318205703892190  
  0.3342427419458570  0.1673870277359200  0.6668732726069070  
  0.3370507307100470  0.4990956680799030  0.0045196719132576  
  0.3308054255136740  0.4984039160976220  0.3369007421982460  
  0.3307545170629850  0.4991740427331170  0.6626720004725470  
  0.3329560728487380  0.8315425415245630  0.9991437612231950  
  0.3347475707884090  0.8330568630753350  0.3317141336934450  
  0.3348190210440410  0.8319876845575610  0.6669030692785820  
  0.6671353755857440  0.1663670023716290  0.9988707620832430  
  0.6667858840826780  0.1659051878300700  0.3307901907630890  
  0.6676855499032900  0.1665352344322600  0.6671728784720020  
  0.6673809941849310  0.4987866546614730  0.9995486709215200  
  0.6627953363964070  0.4995480680059640  0.3243789286195590  
  0.6708335280970560  0.4987117263646180  0.6664483473610689  
  0.6667623519245320  0.8316302939527350  0.9996773590237420  
  0.6685262999777420  0.8311320383749530  0.3312050031065610  
  0.6639070947491280  0.8357130206167230  0.6668590479470710  
  0.0005245809899677  0.0013976961122495  0.1647203423302770  
  0.0008484524693486  0.0041750938862464  0.4989316250442290  
  0.0008141613213368  0.9990697614503570  0.8318182249471280  
  0.0023590160933935  0.3314346199969550  0.1668096353465880  
  0.0077850751949384  0.3315752421816640  0.4981869574121940  
  0.0003804538468088  0.3208649491366270  0.8416111382581730  
  0.0012711293305614  0.6667526839905520  0.1667246941588440  
  0.0254294105696147  0.7045530006838450  0.4736672977962260  
  0.0022370512275955  0.6671200859915060  0.8338783488595990  
  0.3324519378458890  0.9996125431608720  0.1668852624683840  
  0.3370297413574260  0.0045268218624628  0.4990622437082810  
  0.3329635702100620  0.9991160340678530  0.8316849776262391  
  0.3327093945104740  0.3317991939956290  0.1684228625940560  
  0.3308549095667320  0.3369442615865450  0.4983610690460480  
  0.3347757892381650  0.3317390487076110  0.8331468281517120  
  0.3341582962022610  0.6668184507101740  0.1670615790580290  
  0.3308199645434730  0.6626465558464359  0.4991303747827370  
  0.3347440851709320  0.6669048283935840  0.8319152277122230  
  0.6670927001749050  0.9987858556537010  0.1668182662957490  
  0.6673624150241720  0.9998323325547031  0.4987714849125450  
  0.6668383273709110  0.9997624544153820  0.8317420857336870  
  0.6667233166762400  0.3307901330729310  0.1653514312306610  
  0.6628214667654720  0.3245916857419570  0.4995898055440120  
  0.6684410875062530  0.3312169109098380  0.8311005454046591  
  0.6677123082660760  0.6671323124462420  0.1660623964263410  
  0.6705431420294520  0.6665014571856740  0.4984836404491730  
  0.6643771847198821  0.6669381970869570  0.8348184514556890  
  0.1686498424699470  0.1680830511043680  0.1681734767677550  
  0.1699328655929830  0.1661589782550980  0.4985211535492840  
  0.1694427893893790  0.1662156892859130  0.8317507346767880  
  0.1699249510900530  0.4985657366197100  0.1661974391555110  
  0.9361483039166030  0.5742649319284751  0.5749295664596450  
  0.1811051480021890  0.5005569692451390  0.8461848588265680  
  0.1693852795531330  0.8316236461776541  0.1663769798743360  
  0.1810301827657670  0.8461731571170999  0.5004648213902170  
  0.1694236733982420  0.8309116828891380  0.8308792225649529  
  0.4994015334488820  0.1669140192236750  0.1669632512919750  
  0.4988255642784910  0.1670991519534230  0.4989986326343820  
  0.5000305703379690  0.1670230770682650  0.8314717276037630  
  0.4988361151736380  0.4990631490749920  0.1666579441996770  
  0.5043412888732990  0.4990295241108810  0.4991220255471450  
  0.5016697572856900  0.4986222774304070  0.8321661764022390  
  0.5000029500608680  0.8313370869405570  0.1666518710283070  
  0.5016393344575930  0.8322152957816370  0.4986362668433420  
  0.4999348534116020  0.8318317763412320  0.8318108319353850  
  0.8318709540626510  0.1650695124121670  0.1650781176205950  
  0.8330791537146990  0.1665664915647510  0.4988429370050940  
  0.8318096783880190  0.1651929121472260  0.8314440092560100  
  0.8330892885058180  0.4990851008471110  0.1659486088805480  
  0.8161487178587949  0.4705884357821830  0.4704944043732270  
  0.8342122355298400  0.4989462258716130  0.8349398986103940  
  0.8318643020149850  0.8312829373775940  0.1657399667310880  
  0.8342643298351430  0.8356534146850620  0.4984629882973760  
  0.8322850003834790  0.8362220651239129  0.8357374550754030  
  0.1683334485877450  0.9987988233421770  0.9989748134765860  
  0.1691604634298470  0.0012801438688470  0.3307880675942840  
  0.1688714846022350  0.0011734823079905  0.6678321609926600  
  0.1691958294118270  0.3306955045136630  0.0013023241392318  
  0.1688358115573150  0.3363910188014430  0.3363866944688850  
  0.1751480654412060  0.3288944371968510  0.6640755392469940  
  0.1686566252051160  0.6677947560371750  0.0010872206293868  
  0.1747741850045660  0.6641344705611020  0.3292689503579850  
  0.1679458577068260  0.6645998595375811  0.6641462273527170  
  0.4995264825179150  0.9992159892983210  0.9992697724098750  
  0.5000394081683480  0.9990622511825010  0.3315030416081580  
  0.4992846945627750  0.9998952111538270  0.6666696509344660  
  0.5000193035233240  0.3314313248541300  0.9990404570191420  
  0.4988824421353330  0.3317300077647690  0.3315897803232280  
  0.4993418129414380  0.3324620571589350  0.6669398290539310  
  0.4994037159330700  0.6666314916470810  0.9990666794974740  
  0.4993787666386140  0.6668652747514370  0.3321873036559070  
  0.4996457483878490  0.6661919909254620  0.6661563057250890  
  0.8317311310810420  0.9988346372798350  0.9996170252218870  
  0.8320734316377950  0.0007461256742900  0.3312050317531220  
  0.8324343897285690  0.0005831157665170  0.6667960013151770  
  0.8320452108004800  0.3308828009324290  0.9999438539279810  
  0.8346136261122790  0.3247599522340250  0.3234066083964110  
  0.8356751094027710  0.3312734380804660  0.6659979075292310  
  0.8325571921065630  0.6669577396743380  0.9997442347341380  
  0.8357614433546700  0.6658665042357370  0.3314455020336450  
  0.8212994973009130  0.6845670498920240  0.6815053797999649  
