Li   F 
    1.000000000000000     
  12.0789003372000003   0.0000000000000000   0.0000000000000000
   0.0000000000000000  12.0789003372000003   0.0000000000000000
   0.0000000000000000   0.0000000000000000  12.0789003372000003
Li   F 
108  108  
Direct
  0.0011360535024068  0.9991856501248648  0.0000003362604488  
  0.0012571800162675  0.0004738774510287  0.3263256751498389  
  0.0015023614645742  0.0001047132761798  0.6710079192328067  
  0.0012350033545445  0.3256483394278717  0.0001050576236636  
  0.0001206885237579  0.3263395170364305  0.3258539012733763  
  0.0025278588691080  0.3261245235538226  0.6738069131609734  
  0.0008370083309188  0.6708275148624097  0.9993068082029311  
  0.0026184902413675  0.6736469021354807  0.3272552869823215  
  0.0007965064564033  0.6739463795255674  0.6520310696653127  
  0.3297093331590943  0.9995983336805665  0.9997710236372299  
  0.3300177063368466  0.0001171409569167  0.3277939733030450  
  0.3302279341282670  0.0002498657940180  0.6716656098254319  
  0.3299027569280994  0.3275342500336933  0.0002474887313539  
  0.3457984239643821  0.3283071352787061  0.3284491129171840  
  0.3449733495977654  0.3287405378838955  0.6718403607738708  
  0.3288601639472901  0.6714184247896497  0.9998075142830061  
  0.3460928422272218  0.6716044418605165  0.3282765249123116  
  0.3298691122174020  0.6700378924319850  0.6701110670007182  
  0.6705846722514224  0.9989371673729721  0.9997512724241133  
  0.6723490978674107  0.9984361372402049  0.3276184656846226  
  0.6704405222712282  0.9998165440094553  0.6717426590768980  
  0.6724789179161235  0.3267765814907548  0.9979372595871823  
  0.6733623552487416  0.3286613650184975  0.3277382582555575  
  0.6733172507080880  0.3287106094900807  0.6704810944761661  
  0.6724743053012432  0.6715548600615620  0.9986635786696993  
  0.6726709641109352  0.6700974247971345  0.3283042675541807  
  0.6732865892165876  0.6715651647106995  0.6703178069803144  
  0.0005288281631906  0.1698916164126061  0.1701267086625435  
  0.0009280060015158  0.1698412113290502  0.4995702682315510  
  0.0011543384541426  0.1542425879646956  0.8292501957063578  
  0.0008784066000516  0.4994973625601631  0.1698649732211095  
  0.9721194681089074  0.4763000860355291  0.4766878431714332  
  0.0012313949256182  0.5004978519998744  0.8475904130693337  
  0.0011123146346179  0.8288484443721913  0.1546080340225728  
  0.0011686379195055  0.8489748676237667  0.4994571242797292  
  0.0004990128363787  0.8272224182512957  0.8275099445395355  
  0.3301124723823605  0.1703118278158868  0.1705800091109211  
  0.3454989482165800  0.1705534141849370  0.4998861875782339  
  0.3305928357407950  0.1702937805569391  0.8288338118905898  
  0.3455320623860842  0.4997137168190591  0.1707731298782846  
  0.3529862498664116  0.5002128305708951  0.5003113066499409  
  0.3462630922322916  0.4995919871742913  0.8468724868104189  
  0.3305593156330460  0.8286126620040335  0.1705565828321056  
  0.3464298822579366  0.8468223029483397  0.4996680413499917  
  0.3451164412830110  0.8285469207756293  0.8286827949682873  
  0.6718396326767362  0.1699440039018967  0.1701108658682529  
  0.6717148281904173  0.1557147423877581  0.4995670312424707  
  0.6723639416005085  0.1711137863980881  0.8288541883324214  
  0.6717922096817048  0.4994791979947379  0.1553840364702594  
  0.6724599656897325  0.4996919352349565  0.4997094169795915  
  0.6738016076662561  0.4991299268219862  0.8271671603851871  
  0.6723521276850875  0.8284944008943000  0.1713031163638590  
  0.6737052337049079  0.8271426641223911  0.4991447803073683  
  0.6720950912122561  0.8282509429004747  0.8282836930352175  
  0.1717461387521055  0.9996595294573396  0.1706447064266641  
  0.1738040786052508  0.0018075378089861  0.4996394414682257  
  0.1731628603623463  0.9986541840207508  0.8287647569902532  
  0.1729700248326509  0.3290564660792796  0.1711704399350751  
  0.1743899671957791  0.3204036606590819  0.5006719929742971  
  0.1720778167040891  0.3275824567909495  0.8285526467516107  
  0.1733038040481034  0.6700832787167172  0.1709622075353465  
  0.1751505339498536  0.6964705847095729  0.4984697407584591  
  0.1721003056712362  0.6713343092582775  0.8290200282554991  
  0.5005447946333916  0.9995160267577319  0.1704832244043288  
  0.5018835042629561  0.9999380098351835  0.4996656046395884  
  0.5009545851603434  0.0002077991942500  0.8286503891969161  
  0.5017696798651059  0.3274779544307478  0.1688116901066437  
  0.5038603118930070  0.3272425042933236  0.4996895292681884  
  0.5019820347114887  0.3274477648327192  0.8295174979165694  
  0.5015184068601570  0.6715405840433704  0.1541558643498817  
  0.5021906067774680  0.6715486769843082  0.4999330767517236  
  0.5017658256768627  0.6706894083362229  0.8281488363384781  
  0.8295486644702166  0.9990541748206354  0.1710703321459803  
  0.8293850006722465  0.0000153908967775  0.4988352915356771  
  0.8283926443182921  0.9992547328662766  0.8290975219021917  
  0.8293671977750705  0.3268416906846241  0.1542469235428285  
  0.8247897515416440  0.3236194892922839  0.4996215480266315  
  0.8470432836413835  0.3268877967468882  0.8293542367459352  
  0.8298103038704241  0.6706722735824542  0.1703199509897928  
  0.8485872175525486  0.6738916249515725  0.5009847643377512  
  0.8299571399687053  0.6725399060841610  0.8283816464389773  
  0.1717322398786081  0.1702081375096256  0.9998265350014321  
  0.1729752746034450  0.1711266652913892  0.3293559216109543  
  0.1735033730442126  0.1706358998676123  0.6704554926637840  
  0.1736268213525634  0.4994624170729125  0.0018156875866708  
  0.1744344741798400  0.5004377306230410  0.3206823412857815  
  0.1743358408077924  0.4987025141952159  0.6965865924132046  
  0.1730284390337005  0.8284964801573125  0.9988067838788623  
  0.1723719097654666  0.8286624723004152  0.3277024865237053  
  0.1730632908370424  0.8298830530578911  0.6715866891481497  
  0.5005403503000707  0.1700229978417411  0.9996896664305837  
  0.5017712102523575  0.1690078117409826  0.3276412645232654  
  0.5016509124867170  0.1693976811675171  0.6717031772424349  
  0.5019418045051438  0.4989087053884518  0.9995930465993226  
  0.5039022022870014  0.5002305128021689  0.3268253840409372  
  0.5021665388013190  0.5001513984932799  0.6716149343626654  
  0.5009724495423455  0.8295149098415706  0.9996973549619668  
  0.5020601862786265  0.8283434906306937  0.3270689165583036  
  0.5016738869721351  0.8285521089185295  0.6707466720841850  
  0.8295353128195160  0.1537760170810216  0.9994036275910219  
  0.8294276263766989  0.1697493217310750  0.3269154407430364  
  0.8296556565240962  0.1704861479173090  0.6710914631923401  
  0.8295817879501186  0.4998217969340217  0.9989901981021703  
  0.8247496733153739  0.4987215490202743  0.3229726265873722  
  0.8497317382268434  0.4995080683981925  0.6741562070003582  
  0.8284816421681001  0.8285316513255623  0.9992888493695915  
  0.8467894347210390  0.8285535995431843  0.3276351692504988  
  0.8282382354167552  0.8442260852866639  0.6719290271983098  
  0.0021075407089697  0.1615164276439174  0.0013450456561870  
  0.0043435008810917  0.1669702478418316  0.3311745825075363  
  0.0035145779953538  0.1651022564809281  0.6664941207647175  
  0.0028313943226479  0.4980260085932926  0.0029789110673875  
  0.0104840508766912  0.4985010286721803  0.3315072485376618  
  0.0275821566276733  0.4710012122693854  0.7034031454312952  
  0.0028704160458801  0.8311880051047993  0.9971646487837944  
  0.0047789723094596  0.8394433522056701  0.3199445828569125  
  0.0052674003303181  0.8367980042805740  0.6655697391801567  
  0.3341710628971128  0.1663796404952436  0.9999703721694786  
  0.3371260723874485  0.1680987528888309  0.3318403342643208  
  0.3386645980473162  0.1669930555337729  0.6669961957352655  
  0.3399940226461737  0.4989980464134618  0.0042089867706423  
  0.3371343396686441  0.4980992158717186  0.3360440213894123  
  0.3343948979884814  0.4991448927837183  0.6628683080320457  
  0.3360354853546781  0.8310693671652629  0.9988865035793353  
  0.3377417020822193  0.8328003256507301  0.3314166713398379  
  0.3377936514683455  0.8316922136343763  0.6668660387000216  
  0.6689992544938974  0.1644088743173668  0.9984927889720652  
  0.6687454231322718  0.1640400143469520  0.3301733383376941  
  0.6694470680821212  0.1646646294617753  0.6675484990674931  
  0.6692795289463547  0.4985782736741058  0.9968524070506817  
  0.6644516388571802  0.4995600543017176  0.3206886748861422  
  0.6741792664755835  0.4988825825590908  0.6661369006754114  
  0.6679804006720929  0.8313796588756901  0.9992400613249757  
  0.6715262175629135  0.8308466340414000  0.3307282332381334  
  0.6649639808128498  0.8372000667294444  0.6665695864243091  
  0.0022922508760601  0.0001992525261514  0.1640017767526345  
  0.0029450921256284  0.0038916275415772  0.4982952458177721  
  0.0024971325542396  0.9967142191801699  0.8316211730131684  
  0.0048755532962730  0.3310436387008266  0.1655811737879986  
  0.0097908830419868  0.3308157148060360  0.4980183608130915  
  0.0046701402620428  0.3169741865993672  0.8405574948463581  
  0.0034202708323150  0.6662216255803344  0.1658209689776697  
  0.0262073870934998  0.7033053709181374  0.4773831122841798  
  0.0041863238843334  0.6668926035912506  0.8324759515174094  
  0.3341712151555711  0.9992644121394960  0.1669239254559898  
  0.3399105153778663  0.0040703748078883  0.4990805126577484  
  0.3360708880129977  0.9985531145493454  0.8318294293054862  
  0.3371011919189684  0.3315552293771376  0.1683547646064127  
  0.3373375938384484  0.3360128993260787  0.4981599177035747  
  0.3378517444643521  0.3312949878606588  0.8333581354531816  
  0.3383216288259803  0.6665722644716539  0.1659096941929690  
  0.3346397060889785  0.6625079425429661  0.4992003712825550  
  0.3374965902021074  0.6666758175169747  0.8316230894079126  
  0.6688290169905429  0.9979271823250357  0.1664284071029698  
  0.6692080766188013  0.9977413879191559  0.4987262140344271  
  0.6682822905092607  0.9993366989783965  0.8320361015421227  
  0.6684991787689256  0.3299635809984238  0.1620612945388231  
  0.6645679233516049  0.3213217440386273  0.4999317158028163  
  0.6711890730389882  0.3305576347401384  0.8309333667822258  
  0.6695528432584155  0.6671798298733549  0.1630088089012744  
  0.6730334220466361  0.6661539295079351  0.4982054353035537  
  0.6668136327587035  0.6666807249018589  0.8338914838723994  
  0.1707184302450457  0.1679572583378928  0.1685261160413347  
  0.1736106321041575  0.1657525232003962  0.4985958540246784  
  0.1719347301297063  0.1643157779810025  0.8315844093795519  
  0.1735806658437511  0.4985633205595050  0.1660985310519152  
  0.9319489803897838  0.5710454567788759  0.5738626248589753  
  0.1833326961647543  0.5003406788226812  0.8460415238079406  
  0.1717004082689186  0.8308712198372206  0.1651988389955505  
  0.1830361265334020  0.8458300253287732  0.5001886541923710  
  0.1728941709240175  0.8306463806202800  0.8307209394283603  
  0.5016327343946330  0.1661934374628657  0.1665997075970722  
  0.5029237410461178  0.1653905659891919  0.4989552799597803  
  0.5021824866871896  0.1667181583449704  0.8318527121049044  
  0.5029584187104135  0.4990042160783119  0.1638245104158429  
  0.5069693570866747  0.4985640592268581  0.4991521782099753  
  0.5036091374710097  0.4981174573762317  0.8317606094242862  
  0.5020678543184758  0.8311102226782054  0.1654438297036691  
  0.5034759495174370  0.8317579855737591  0.4983970121471799  
  0.5033678008912759  0.8315276826976330  0.8316375439535335  
  0.8335252307429215  0.1630482040726449  0.1633123020057781  
  0.8347726053280908  0.1651327320409308  0.4983849780645642  
  0.8345980470362520  0.1623258199331303  0.8316261566321472  
  0.8348171501125492  0.4991324041544516  0.1628815857381696  
  0.8161971842810729  0.4673984411242103  0.4671697397592354  
  0.8371997282742285  0.4989201303368773  0.8342667594154278  
  0.8348246068514271  0.8307779202881562  0.1647450359250371  
  0.8374076667028874  0.8368633119857876  0.4972525395947827  
  0.8334368967435566  0.8373743116199321  0.8356726431489321  
  0.1699530312496265  0.9980819446486180  0.9990082206667310  
  0.1711960796502865  0.0009768396683825  0.3306587658179581  
  0.1711182548015202  0.0010639887976041  0.6678514377049396  
  0.1713332444261724  0.3300845644022985  0.0012814989498722  
  0.1729145248997455  0.3367895719414591  0.3369860557702751  
  0.1804071760374555  0.3291215725759855  0.6636633018759497  
  0.1702640171931620  0.6675013162655361  0.0009447860202769  
  0.1789184668919575  0.6637037725024868  0.3308542318663541  
  0.1699317322069760  0.6638671589681593  0.6622716379416147  
  0.5010629320594830  0.9987079773059193  0.9991408193778568  
  0.5023314553614142  0.9984560296349585  0.3314421530109115  
  0.5012941684778696  0.9995936221368993  0.6667437496389184  
  0.5022610843481274  0.3309514305924779  0.9985904843406104  
  0.5037982358102795  0.3309605533398781  0.3306033007765166  
  0.5034853384016102  0.3319101096883159  0.6673176159193162  
  0.5017529594810739  0.6663978628398155  0.9965156186767103  
  0.5036242682339918  0.6668167195464179  0.3310313806706091  
  0.5023935819708569  0.6661815679337124  0.6662467438840238  
  0.8332546306502522  0.9961667571440174  0.9995145038148863  
  0.8350760183682553  0.0001951907916151  0.3309210556724125  
  0.8339579652504625  0.0017710917138913  0.6665266395408835  
  0.8349637182913483  0.3294155724339873  0.9972301799019689  
  0.8363176649720359  0.3239193168601275  0.3187494923630965  
  0.8383745492262307  0.3301415390440567  0.6662452593433983  
  0.8344477925991072  0.6669655859323811  0.9986746050449327  
  0.8387288135221738  0.6655231734729838  0.3310338507648822  
  0.8238349116764496  0.6906947273426809  0.6788645843922936  
