Li   Nb   Mo   O                        
   1.00000000000000     
    22.7851428986000002    0.0000000000000000    0.0000000000000000
     0.0000000000000000    3.8768503666000003    0.0000000000000000
    -9.9730516296000005    0.0000024128000000   15.1282481845000003
   Li   Nb   Mo   O 
     1    24     2    66
Direct
  0.3195871528313257  0.9050918720877547  0.6324645687944216
  0.3671016565729411  0.0052721218236198  0.0462329990412364
  0.6337132351385864  0.0104417787660186  0.9540203826699437
  0.8651650102041206  0.5080785894843272  0.0446580368096198
  0.1310393475123948  0.5091492333393607  0.9554815380626053
  0.2486670185631765  0.0040526113572705  0.1372874315647168
  0.7520927739952229  0.0037401421752604  0.8617535042256242
  0.7477265191421540  0.5047734203958775  0.1378061214273840
  0.2494359114350086  0.5018246228454949  0.8651544870921825
  0.1297928473770959  0.9980246725053847  0.2305700477931987
  0.8689598473333890  0.9989331454416314  0.7676198776412417
  0.6316630447204762  0.4995556404738025  0.2329289013056200
  0.3708690254586736  0.4680048535651870  0.7756398737573463
  0.4196748440178394  0.9708570894396216  0.3788875076291836
  0.5843225289290860  0.9688281501295528  0.6172235593491744
  0.9172336309226065  0.4671302156395739  0.3816817204031643
  0.0817505392147936  0.4657600519259711  0.6203106754064134
  0.2978525879486058  0.0194418120940538  0.4660799008408669
  0.7028500312997997  0.0045203863800654  0.5263505539606799
  0.7986862754455616  0.5040053854051821  0.4732440990531512
  0.1976215961969663  0.4871111693027835  0.5231303659753250
  0.4679141990473257  0.0053252139591193  0.7125133470923775
  0.5374593199529414  0.0036170973218246  0.2869207218601365
  0.9634191142919012  0.5015803781258917  0.7127556108809725
  0.0326116318182614  0.5020100402805306  0.2836132429759307
  0.9992634065808202  0.2519499994924465  0.0006139941852186
  0.5003909382957371  0.7474246029859341  0.0001558403472134
 -0.0008465670527059  0.4895814136248708  0.5011321520247138
  0.5000306584938148  0.9933731753341617  0.4996508315567161
  0.1482246323818424  0.0039022775667374  0.9916097946457156
  0.8502159722296240  0.0046419770026421  0.0089296578691588
  0.6490198210551459  0.5059788080024068  0.9904419219213828
  0.3508807613023547  0.5010552514122110  0.0098418328701222
  0.3030401309357993  0.0010406958554195  0.0814097078765409
  0.6957640701901002  0.0048345618294154  0.9169004429484838
  0.8028933359585316  0.5048158101292891  0.0812869224053165
  0.1955800815133099  0.4980841429283370  0.9196492967424119
  0.0336780090815587  1.0006664578748239  0.0995384602449586
  0.9657305634517642  1.0007023743847154  0.9026695652359761
  0.5341644960070686  0.4994893179647679  0.0982454655026718
  0.4661706302616154  0.4930721525916286  0.9002838418382946
  0.4498924173454917  0.0030958207535487  0.1556664230617321
  0.5495528310698242  0.0065301598558028  0.8442171347607160
  0.9490938970217513  0.5022099572778774  0.1557409608714083
  0.0495435284051752  0.5054805713450977  0.8451887843313659
  0.1802832197251363  0.0012299523561212  0.1785993438674879
  0.8204674517267663  0.0037681490064329  0.8234359088595989
  0.6797494873521572  0.5046812820094071  0.1767109334464855
  0.3212925147038866  0.4827483724978896  0.8275376840680750
  0.0488559048815611  0.0004825707765912  0.2709378921966972
  0.9501998930878875  0.0019768816892721  0.7304668485650968
  0.5502718321684104  0.5026821848444645  0.2693222083567824
  0.4507963069673741  0.4981569427158664  0.7278915348719859
  0.3258924121895370  1.0019271716784022  0.2491515150564829
  0.6754730047862534  1.0003642122521730  0.7494851857734609
  0.8253336317834763  0.4998722194210027  0.2495068002166856
  0.1749532572918257  0.4994272773626993  0.7510763426963962
  0.4770719493505001  1.0038943144164671  0.3259382863234974
  0.5271299398335126  1.0063171567839859  0.6743799304504349
  0.9771217506197123  0.5007512577714555  0.3282263846952719
  0.0241979249026914  0.4970730274411971  0.6747526972931047
  0.2061069423381209  0.0073486547501362  0.3496395209204105
  0.7928219116705564  0.0021996766615652  0.6513167816064960
  0.7075868683416097  0.5023337540804329  0.3488402711795970
  0.2938347198190852  0.4741905649739994  0.6548282543383112
  0.3519504942650744  0.0169181708239909  0.4205370438699561
  0.6480334752614659  1.0024032268854566  0.5734086010383286
  0.8523239613333070  0.5002544345624610  0.4249764511606784
  0.1455213451717713  0.4929233002724996  0.5726899850539371
  0.2260950347984935 -0.0106210526537310  0.5263968305492082
  0.7788913636590334  0.0034520236493879  0.4811491189325150
  0.7221201884376719  0.5035897911886289  0.5184100219605704
  0.2807696938447085  0.5087040000407006  0.4822619258728374
  0.3796992078726532  0.0045396429667127  0.5941330960350555
  0.6223426250119144  0.0028155573369973  0.4035886285676745
  0.8784904358598519  0.5030944055835205  0.5959843473252855
  0.1227791465210593  0.4928088052276804  0.4040006101863199
  0.0906787284863246  0.9907791007687934  0.6319832559656934
  0.9101430099090263  0.9930324410128554  0.3683954003565167
  0.5910749802257746  0.4951687611147422  0.6301542665486451
  0.4107098722896792  0.4977214543300343  0.3679804699022590
  0.3897593542173379  0.9770914075533705  0.7628732843475234
  0.6059406779957396  0.0016909632888574  0.2313225848860888
  0.8942344375477296  0.5013056525162741  0.7685114627252940
  0.1057150153987988  0.5015609026590861  0.2320598748439889
  0.2749137249369505 -0.0013435947242313  0.8976174655171010
  0.7239738031065150  0.0053493990916948  0.1026321640321439
  0.7756182067660725  0.5042741669533853  0.8970385903803701
  0.2239888494788543  0.5033062993482457  0.1041115433765506
  0.4291017127596082 -0.0009115179095799  0.9867091881698326
  0.5708735146817773  0.0020551793378690  0.0130826621992194
  0.9281251838477677  0.5041513568799330  0.9871592806245073
  0.0709419671998953  0.5044946068644143  0.0143250234341322
 
  0.00000000E+00  0.00000000E+00  0.00000000E+00
  0.00000000E+00  0.00000000E+00  0.00000000E+00
  0.00000000E+00  0.00000000E+00  0.00000000E+00
  0.00000000E+00  0.00000000E+00  0.00000000E+00
  0.00000000E+00  0.00000000E+00  0.00000000E+00
  0.00000000E+00  0.00000000E+00  0.00000000E+00
  0.00000000E+00  0.00000000E+00  0.00000000E+00
  0.00000000E+00  0.00000000E+00  0.00000000E+00
  0.00000000E+00  0.00000000E+00  0.00000000E+00
  0.00000000E+00  0.00000000E+00  0.00000000E+00
  0.00000000E+00  0.00000000E+00  0.00000000E+00
  0.00000000E+00  0.00000000E+00  0.00000000E+00
  0.00000000E+00  0.00000000E+00  0.00000000E+00
  0.00000000E+00  0.00000000E+00  0.00000000E+00
  0.00000000E+00  0.00000000E+00  0.00000000E+00
  0.00000000E+00  0.00000000E+00  0.00000000E+00
  0.00000000E+00  0.00000000E+00  0.00000000E+00
  0.00000000E+00  0.00000000E+00  0.00000000E+00
  0.00000000E+00  0.00000000E+00  0.00000000E+00
  0.00000000E+00  0.00000000E+00  0.00000000E+00
  0.00000000E+00  0.00000000E+00  0.00000000E+00
  0.00000000E+00  0.00000000E+00  0.00000000E+00
  0.00000000E+00  0.00000000E+00  0.00000000E+00
  0.00000000E+00  0.00000000E+00  0.00000000E+00
  0.00000000E+00  0.00000000E+00  0.00000000E+00
  0.00000000E+00  0.00000000E+00  0.00000000E+00
  0.00000000E+00  0.00000000E+00  0.00000000E+00
  0.00000000E+00  0.00000000E+00  0.00000000E+00
  0.00000000E+00  0.00000000E+00  0.00000000E+00
  0.00000000E+00  0.00000000E+00  0.00000000E+00
  0.00000000E+00  0.00000000E+00  0.00000000E+00
  0.00000000E+00  0.00000000E+00  0.00000000E+00
  0.00000000E+00  0.00000000E+00  0.00000000E+00
  0.00000000E+00  0.00000000E+00  0.00000000E+00
  0.00000000E+00  0.00000000E+00  0.00000000E+00
  0.00000000E+00  0.00000000E+00  0.00000000E+00
  0.00000000E+00  0.00000000E+00  0.00000000E+00
  0.00000000E+00  0.00000000E+00  0.00000000E+00
  0.00000000E+00  0.00000000E+00  0.00000000E+00
  0.00000000E+00  0.00000000E+00  0.00000000E+00
  0.00000000E+00  0.00000000E+00  0.00000000E+00
  0.00000000E+00  0.00000000E+00  0.00000000E+00
  0.00000000E+00  0.00000000E+00  0.00000000E+00
  0.00000000E+00  0.00000000E+00  0.00000000E+00
  0.00000000E+00  0.00000000E+00  0.00000000E+00
  0.00000000E+00  0.00000000E+00  0.00000000E+00
  0.00000000E+00  0.00000000E+00  0.00000000E+00
  0.00000000E+00  0.00000000E+00  0.00000000E+00
  0.00000000E+00  0.00000000E+00  0.00000000E+00
  0.00000000E+00  0.00000000E+00  0.00000000E+00
  0.00000000E+00  0.00000000E+00  0.00000000E+00
  0.00000000E+00  0.00000000E+00  0.00000000E+00
  0.00000000E+00  0.00000000E+00  0.00000000E+00
  0.00000000E+00  0.00000000E+00  0.00000000E+00
  0.00000000E+00  0.00000000E+00  0.00000000E+00
  0.00000000E+00  0.00000000E+00  0.00000000E+00
  0.00000000E+00  0.00000000E+00  0.00000000E+00
  0.00000000E+00  0.00000000E+00  0.00000000E+00
  0.00000000E+00  0.00000000E+00  0.00000000E+00
  0.00000000E+00  0.00000000E+00  0.00000000E+00
  0.00000000E+00  0.00000000E+00  0.00000000E+00
  0.00000000E+00  0.00000000E+00  0.00000000E+00
  0.00000000E+00  0.00000000E+00  0.00000000E+00
  0.00000000E+00  0.00000000E+00  0.00000000E+00
  0.00000000E+00  0.00000000E+00  0.00000000E+00
  0.00000000E+00  0.00000000E+00  0.00000000E+00
  0.00000000E+00  0.00000000E+00  0.00000000E+00
  0.00000000E+00  0.00000000E+00  0.00000000E+00
  0.00000000E+00  0.00000000E+00  0.00000000E+00
  0.00000000E+00  0.00000000E+00  0.00000000E+00
  0.00000000E+00  0.00000000E+00  0.00000000E+00
  0.00000000E+00  0.00000000E+00  0.00000000E+00
  0.00000000E+00  0.00000000E+00  0.00000000E+00
  0.00000000E+00  0.00000000E+00  0.00000000E+00
  0.00000000E+00  0.00000000E+00  0.00000000E+00
  0.00000000E+00  0.00000000E+00  0.00000000E+00
  0.00000000E+00  0.00000000E+00  0.00000000E+00
  0.00000000E+00  0.00000000E+00  0.00000000E+00
  0.00000000E+00  0.00000000E+00  0.00000000E+00
  0.00000000E+00  0.00000000E+00  0.00000000E+00
  0.00000000E+00  0.00000000E+00  0.00000000E+00
  0.00000000E+00  0.00000000E+00  0.00000000E+00
  0.00000000E+00  0.00000000E+00  0.00000000E+00
  0.00000000E+00  0.00000000E+00  0.00000000E+00
  0.00000000E+00  0.00000000E+00  0.00000000E+00
  0.00000000E+00  0.00000000E+00  0.00000000E+00
  0.00000000E+00  0.00000000E+00  0.00000000E+00
  0.00000000E+00  0.00000000E+00  0.00000000E+00
  0.00000000E+00  0.00000000E+00  0.00000000E+00
  0.00000000E+00  0.00000000E+00  0.00000000E+00
  0.00000000E+00  0.00000000E+00  0.00000000E+00
  0.00000000E+00  0.00000000E+00  0.00000000E+00
  0.00000000E+00  0.00000000E+00  0.00000000E+00
