Li   F 
    1.000000000000000     
  12.0789003372000003   0.0000000000000000   0.0000000000000000
   0.0000000000000000  12.0789003372000003   0.0000000000000000
   0.0000000000000000   0.0000000000000000  12.0789003372000003
Li   F 
108  107  
Direct
  0.9989404635405420  0.0019547012160714  0.0005452560807697  
  0.9997543153322180  0.0002619769533112  0.3334557466383640  
  0.9997536637142020  0.0007839593576193  0.6660026634635300  
  0.9989225410866990  0.3314238154995690  0.0005414130330905  
  0.9997447116089900  0.3331031762110260  0.3334657108849090  
  0.9997444451750040  0.3325914066316500  0.6659973487733030  
  0.9887274268282700  0.6666440470099529  0.0056394732424252  
  0.9989083940488970  0.6666414281406080  0.3346178439946290  
  0.9989053061332810  0.6666458605539280  0.6597939337025520  
  0.3344876328795370  0.0013782951536498  0.0001261544514364  
  0.3336536937064880  0.0001862237183943  0.3334707999138760  
  0.3336609562113180  0.0001915615084158  0.6664052968814500  
  0.3344829011650460  0.3320176105154150  0.0001269194329510  
  0.3336568554031910  0.3331875764733070  0.3334755010654360  
  0.3336648276291360  0.3331794447590540  0.6663998220770611  
  0.3451664169744360  0.6666506820646489  0.0005475144495506  
  0.3345342372451650  0.6666386424745741  0.3346140538402270  
  0.3350349376432500  0.6666353540700880  0.6648613243539220  
  0.6666196375026840  0.0003306636320914  0.0001258201829231  
  0.6666080063127210  0.0001650690370383  0.3334471679919280  
  0.6665997247941390  0.0001734589536326  0.6664280813465880  
  0.6666025962953700  0.3330308930852870  0.0001271188896368  
  0.6665970378265980  0.3332020997656140  0.3334568257303730  
  0.6665876920979410  0.3331933852545820  0.6664176093414370  
  0.6660226503276619  0.6666475796240260  0.0005477192330332  
  0.6665195485148420  0.6666452234388560  0.3336097406837620  
  0.6660181391812050  0.6666419055131531  0.6658644583264600  
  0.9998634364216490  0.1666585932376350  0.1669202094146560  
  0.9998779355320980  0.1666687789139160  0.4998665200285900  
  0.9998635195995860  0.1666556091937180  0.8332082360466300  
  0.9998545533128150  0.4993122572400920  0.1674333356183980  
  0.9998547113338599  0.4993089345560900  0.4993483259384560  
  0.9998530560562100  0.4942138833989920  0.8332106007144801  
  0.9998677899335749  0.8340245452916260  0.1674199951358370  
  0.9998543384031110  0.8340254036462370  0.4993437781235600  
  0.9998669003187500  0.8390785653140540  0.8332155939202580  
  0.3335618276530710  0.1666526531048760  0.1668405220162090  
  0.3335214078468100  0.1666569276910080  0.4999457413263290  
  0.3336380041788800  0.1666506416218570  0.8332102016054320  
  0.3335518153113530  0.4997260702633780  0.1668415295773970  
  0.3335477930969690  0.4997273788630640  0.4999364970716580  
  0.3341258274682420  0.4993063214874450  0.8332226205896019  
  0.3335629095929920  0.8336184768310700  0.1668390788621610  
  0.3335543515584260  0.8336172395796240  0.4999362895691920  
  0.3341309628081320  0.8340172279966960  0.8332240670780779  
  0.6666026677975410  0.1666462857817520  0.1668107337860580  
  0.6666033579163509  0.1666536089955030  0.4999449518472970  
  0.6665261988890170  0.1666454823321360  0.8332403876016560  
  0.6665983811668280  0.4997234925983280  0.1668517405140050  
  0.6666058213079110  0.4997529376859550  0.4999356951721550  
  0.6660232648332280  0.4993031597734400  0.8332118727589450  
  0.6665945480669681  0.8336296055743661  0.1668447096427390  
  0.6665955304533000  0.8335927428810880  0.4999358951057430  
  0.6660248944080460  0.8340297808461939  0.8332174004943410  
  0.1667893535050380  0.0013777391612351  0.1677800972380720  
  0.1667823494086920  0.0003267716563116  0.4999364570722380  
  0.1671974715848140  0.0019669856622499  0.8322815954002390  
  0.1667828828968330  0.3320076496147880  0.1677812525022520  
  0.1667759278746600  0.3330341827579770  0.4999352801818380  
  0.1671959250955690  0.3314242976891820  0.8322742989550280  
  0.1671815717277950  0.6666450052773530  0.1784358186130890  
  0.1671835575636040  0.6666491921750290  0.4993447122148210  
  0.1722151437148720  0.6666363776820390  0.8222112804834510  
  0.5001347782202430  0.0001839553782901  0.1669556457822590  
  0.5001131075653190  0.0001622338968232  0.4999463991694670  
  0.5001343832029190  0.0002582792735737  0.8330971966453120  
  0.5001340807408921  0.3331771135136990  0.1669491242033420  
  0.5001107387451920  0.3331846318639580  0.4999453144805630  
  0.5001336191050360  0.3331005354206270  0.8331013761757620  
  0.5013147105859660  0.6666510386967990  0.1678427786799470  
  0.5002620729102670  0.6666585224963770  0.4998692474360810  
  0.5013148410587930  0.6666491269935760  0.8322860322984200  
  0.8331216711697350  0.0001951536611458  0.1669533847491490  
  0.8331162655652020  0.0001734183841151  0.4999358698708600  
  0.8327128859338370  0.0007857265109337  0.8331075361032489  
  0.8331111475290950  0.3331686156881020  0.1669525921854240  
  0.8331220995480420  0.3331844568876290  0.4999346538325110  
  0.8326976758006380  0.3325851975204440  0.8331028858504510  
  0.8315336273810910  0.6666641080763470  0.1683627125307440  
  0.8325626998114610  0.6666532382289460  0.4993434823396040  
  0.8264970076737940  0.6666560334223420  0.8322843818649300  
  0.1667356069834720  0.1666568224148790  0.0000745134643481  
  0.1667052444917160  0.1666501013636790  0.3336120579740080  
  0.1667181908460050  0.1666488483315050  0.6663130319561790  
  0.1667182285626510  0.4886492718753170  0.0000731655459489  
  0.1667147082284900  0.4988308695601300  0.3346160255298120  
  0.1667072689324560  0.4988322620638140  0.6653114440249150  
  0.1667423010816690  0.8445945760854340  0.0000739050520266  
  0.1667148743988780  0.8344792373192650  0.3346146926641820  
  0.1667077727312150  0.8344733405217970  0.6653146280474120  
  0.5002740981954400  0.1666704477791680  0.0000604834091575  
  0.5001142911411450  0.1666559654567910  0.3334511071968650  
  0.5001133515395400  0.1666544891550500  0.6664882490088710  
  0.5013094544377740  0.4988369554916260  0.0000732413639284  
  0.5001289661320381  0.4996879952658730  0.3334571960351200  
  0.5001285493801860  0.4996749562621260  0.6664669570595900  
  0.5013186966702320  0.8344894594477310  0.0000739811314645  
  0.5001305457830870  0.8336570226043780  0.3334668655492550  
  0.5001305411312630  0.8336679380133490  0.6664600607720530  
  0.8330399883438701  0.1666532358851920  0.0000746733499284  
  0.8331971958096530  0.1666469722389440  0.3334551976840670  
  0.8331841381457750  0.1666469201449630  0.6664693357768740  
  0.8319975797803280  0.4988434885879800  0.0000733194364813  
  0.8331602682310970  0.4996715031657220  0.3334648115418590  
  0.8331649137826390  0.4996719658701780  0.6664615633810840  
  0.8320233820887490  0.8344918867906590  0.0000736594205293  
  0.8331700153457360  0.8336786766404390  0.3334721089147050  
  0.8331742353993480  0.8336744986992950  0.6664563791730490  
  0.9997269987038560  0.1666809660024460  0.0001453295226312  
  0.0001676023597739  0.1666759713808550  0.3330944454253030  
  0.0001676017114249  0.1666746321783920  0.6667557222047550  
  0.0028467894963242  0.5042679125695950  0.9985772037360900  
  0.0005422428345341  0.5003960027011940  0.3326860122683540  
  0.0005406715237939  0.5019605363879620  0.6687323570760459  
  0.0028594863142430  0.8290612454163050  0.9985805391657220  
  0.0005482405419173  0.8329233855508060  0.3326886879766990  
  0.0005466387854014  0.8313573888715100  0.6687277755670920  
  0.3335181085267890  0.1666783621360250  0.9999173552190750  
  0.3331199873969550  0.1666724575350430  0.3331026481730180  
  0.3330594343202620  0.1666710681686540  0.6669778449378470  
  0.3301689213695060  0.5031097413475010  0.9997292541407750  
  0.3326599607003540  0.5006250059818100  0.3326890518476800  
  0.3324558068519610  0.5008143388598110  0.6675870915006290  
  0.3301854376320110  0.8302146388206210  0.9997288922223720  
  0.3326676328064410  0.8326995476245710  0.3326952371166240  
  0.3324633355524540  0.8325014616473820  0.6675810909272850  
  0.6668008834331830  0.1666726907835710  0.9999177493243390  
  0.6667280681892360  0.1666683585573030  0.3332192961347360  
  0.6667876594444950  0.1666680959620810  0.6668607020691160  
  0.6670019835694350  0.4999795903096360  0.9997295407159610  
  0.6667911224981180  0.5002473951954440  0.3330944562888480  
  0.6669939243214100  0.5004358103454440  0.6671808998348610  
  0.6670029666651230  0.8333509855417420  0.9997289329720120  
  0.6667885388573180  0.8330921939576110  0.3330986946654660  
  0.6669919244735570  0.8328955677224950  0.6671771810709760  
  0.0005691161767913  0.9991246323106679  0.1658584072119350  
  0.0001592949836180  0.9995386541511950  0.5002406171089790  
  0.0005688519820168  0.0004323159381130  0.8338945694529299  
  0.0005580927799897  0.3342190407992400  0.1658582699153750  
  0.0001636423414340  0.3338136019054260  0.5002470903050240  
  0.0005578052905051  0.3329000452535740  0.8338909366998810  
  0.0028445982558054  0.6666628347739160  0.1648703227269340  
  0.9997108877963750  0.6666651636132880  0.4989389555807690  
  0.1138466660754820  0.7776677295807199  0.9472021338607850  
  0.3326807480932600  0.9992688533126280  0.2773260400181740  
  0.3329218141646780  0.9995272270776000  0.6111111755067210  
  0.3326844031899510  0.1105932625882530  0.9448932902043620  
  0.3326820604079830  0.3340769525211090  0.2773268395084050  
  0.3329246494863580  0.3338156811409410  0.6111123981957290  
  0.3325445456867510  0.4450771854838320  0.9447532885958621  
  0.3302403984404660  0.6666594349308210  0.2751613171240730  
  0.3346699971625500  0.6666561515317680  0.6111163913642910  
  0.4417121792392250  0.7776656854261290  0.9471991255560750  
  0.6667919399040370  0.9996674242819380  0.2777133331714340  
  0.6669293245691750  0.9996441737807090  0.6111132444186610  
  0.6667873915518640  0.1109922130323470  0.9445052589147450  
  0.6667806547971580  0.3336754431589240  0.2777134075924440  
  0.6669203740479830  0.3336935190139910  0.6111126309205021  
  0.6669200972170160  0.4446772699024920  0.9443660947827650  
  0.6669218465264560  0.6666648743990889  0.2783108047849230  
  0.6656264103339640  0.6666613367166790  0.6111166706379760  
  0.8332571524869290  0.5000008483637830  0.9440424638311530  
  0.1665874991300740  0.1666740969055240  0.2781786733280070  
  0.1668125530661580  0.1666733075962060  0.6111118079384000  
  0.1663924925871640  0.2780586202236960  0.9438393183809450  
  0.1663835545297660  0.5031145814399380  0.2752260122606460  
  0.1652346582523660  0.5011294174944180  0.6111134467554540  
  0.1663875518715940  0.6136775265643311  0.9469943497259190  
  0.1663906313845870  0.8302121713484920  0.2752293947886530  
  0.1652353724939030  0.8321986659734720  0.6111131416199310  
  0.2777819210329610  0.9415994473474070  0.9472502328346050  
  0.4997777250137720  0.1666762060671590  0.2776641559548100  
  0.4998956446212470  0.1666756996130730  0.6111118095767269  
  0.4997775014519730  0.2778653219151510  0.9444965845117390  
  0.4993740848137800  0.5006296125132720  0.2773289810699570  
  0.4997803119091270  0.5000131204784850  0.6111110000819270  
  0.4993755634712900  0.6115804209068190  0.9448875798740770  
  0.4993773817931240  0.8327009644282340  0.2773317472729890  
  0.4997772759843710  0.8333099684291410  0.6111132968477690  
  0.6105757127307500  0.9438957479522400  0.9448858637905390  
  0.8336592772189280  0.1666696285388200  0.2777203917917670  
  0.8333074440154110  0.1666709806483410  0.6111130388692840  
  0.8338549648177750  0.2780557507543620  0.9442970341030090  
  0.8342503056081580  0.5008299872213660  0.2775326732842560  
  0.8349979432668850  0.5015841877788890  0.6111136648658120  
  0.8342522172133610  0.6113936416837260  0.9446863800181970  
  0.8342548522401430  0.8325152736834840  0.2775327612881140  
  0.8350035433709170  0.8317482148538670  0.6111142595038360  
  0.9448127048355490  0.8880311226568270  0.8891725812130180  
  0.1665950155694420  0.0020090694663182  0.1111096990311540  
  0.1663911284707780  0.9991927966085900  0.4442214659681910  
  0.1663911890470620  0.1109353315531860  0.7779969378550790  
  0.1665877977941510  0.3313148758062280  0.1111101431233980  
  0.1663861310229960  0.3341471354978860  0.4442222437394180  
  0.1652338133586400  0.4449377759096220  0.7768529232085229  
  0.1668016501970650  0.6666541837645780  0.3354243059890860  
  0.1652244488503310  0.6666521705815780  0.6659981145897620  
  0.4995258567507790  0.9994086724215020  0.9999211279183340  
  0.4997951817744100  0.9997366084355830  0.3331063669425450  
  0.4997947983799380  0.9996759931587180  0.6669746289654340  
  0.4995116349334270  0.3339473848565150  0.9999175970049090  
  0.4997909161779150  0.3336077181754080  0.3331133196125580  
  0.4997901982826180  0.3336670523418090  0.6669660588824300  
  0.5021280297913649  0.6666628688231880  0.0001453435421439  
  0.4995062915663410  0.6666647105490210  0.3328324883238450  
  0.4995064249423540  0.6666624502697330  0.6670213730221380  
  0.8341341117617280  0.9991913834960680  0.9997249399956730  
  0.8336405534228040  0.9996748492200420  0.3331093518873090  
  0.8338360396033980  0.9994747628393910  0.6671623473354490  
  0.8341178404512420  0.3341473368103110  0.9997226858300370  
  0.8336365320839010  0.3336679094559830  0.3331157938990330  
  0.8338299475298430  0.3338664846302490  0.6671554570622790  
  0.8326348768966479  0.6666689934760091  0.9985807443164280  
  0.8336889484986610  0.6666642551735290  0.3328361205433770  
  0.8352623725752790  0.6666624489408480  0.6685855180237330  
