Li   F 
    1.000000000000000     
  12.0789003372000003   0.0000000000000000   0.0000000000000000
   0.0000000000000000  12.0789003372000003   0.0000000000000000
   0.0000000000000000   0.0000000000000000  12.0789003372000003
Li   F 
108  107  
Direct
  0.9997591453464100  0.0019549272556745  0.0013628748510897  
  0.9999431198966490  0.0003664377504009  0.3333602848927840  
  0.9999424886261320  0.0016724094492062  0.6652855707251040  
  0.9997347704543880  0.3314239975719320  0.0013537491820514  
  0.9999356896950080  0.3330013644299400  0.3333724823818680  
  0.9999354386779370  0.3317226490880500  0.6652852676821440  
  0.9971869955708710  0.6666443101415920  0.0140988234410386  
  0.9997294255439750  0.6666457131227050  0.3336666738923530  
  0.9997260584772790  0.6666575619236350  0.6523622554605590  
  0.3337703272399470  0.0004891797601800  0.0003151102990770  
  0.3335461170102220  0.0001731551064310  0.3333802576810920  
  0.3335650082109680  0.0001915367926131  0.6663094512115320  
  0.3337712115880790  0.3328858142740290  0.0003180817460020  
  0.3335481364634420  0.3331993948068830  0.3333835138339510  
  0.3335688675500420  0.3331794607289570  0.6663039546252070  
  0.3377348904734210  0.6666389252500340  0.0013685610044334  
  0.3339394321619410  0.6666428714025870  0.3336692690833020  
  0.3351920743446830  0.6666354131438150  0.6650182737853780  
  0.6665240798329390  0.0002263639912314  0.0003146687860678  
  0.6665289631370040  0.0001650744467696  0.3333681110380910  
  0.6665090052707260  0.0001864375700222  0.6663202660639340  
  0.6665092567045150  0.3331326954424870  0.0003180683705253  
  0.6665177544809709  0.3332020914333140  0.3333775337824530  
  0.6664956744321560  0.3331815451261730  0.6663088229489770  
  0.6650715865241640  0.6666430667282700  0.0013684284964626  
  0.6663266487643750  0.6666452225657620  0.3334169001318940  
  0.6650734952086030  0.6666377056171480  0.6652694854743970  
  0.9999755780727070  0.1666586910483550  0.1670046141037820  
  0.9999691524490610  0.1666709622288640  0.4996661539395150  
  0.9999757400265210  0.1666517115793910  0.8333172364021880  
  0.9999644332851790  0.4986099235565500  0.1682903976518730  
  0.9999643338173460  0.4986008872933920  0.4983706941680170  
  0.9999627946042930  0.4858645261075550  0.8333193543007130  
  0.9999776269127451  0.8347203424069960  0.1682803736027620  
  0.9999646614562890  0.8347218642763540  0.4983594263373870  
  0.9999775705701029  0.8473557409536450  0.8333079063428390  
  0.3335285565264600  0.1666521339533060  0.1668101541712870  
  0.3335092631497220  0.1666568900595640  0.4998632823466520  
  0.3337190857453150  0.1666494788785680  0.8333178513713970  
  0.3335354135312580  0.4996453049235970  0.1668333014626310  
  0.3335270091307620  0.4996488065628240  0.4998406091196370  
  0.3349713658226390  0.4985956114140180  0.8333268100130480  
  0.3335484238764290  0.8337002096839830  0.1668283091071320  
  0.3335353718415560  0.8336942967809901  0.4998409467371160  
  0.3349695464595040  0.8346997157199920  0.8333281881003670  
  0.6665231568908820  0.1666461421795450  0.1667994825782200  
  0.6665242089786640  0.1666534892748640  0.4998623978102610  
  0.6663323980732589  0.1666445788213550  0.8333287161318950  
  0.6665051604389020  0.4996447189347250  0.1668342526506450  
  0.6665125647103950  0.4996553068736350  0.4998396263072710  
  0.6650682649070490  0.4985945803148650  0.8333248992809530  
  0.6665020793994360  0.8337050013810200  0.1668260821237130  
  0.6665047981571059  0.8336882581742340  0.4998403182232710  
  0.6650785633038580  0.8347055991910750  0.8333290199376290  
  0.1669757088628500  0.0004922770437830  0.1670730282040510  
  0.1669660987264480  0.0002265653211566  0.4998408080246010  
  0.1679964466667910  0.0019674522675857  0.8330807834691570  
  0.1669601528220990  0.3328818616293960  0.1670681694172770  
  0.1669594376248040  0.3331354904530100  0.4998375231954600  
  0.1679930191291850  0.3314243495749740  0.8330711561424951  
  0.1679908766159030  0.6666566176458060  0.1710440144928850  
  0.1679818627712920  0.6666486351411440  0.4983614332057370  
  0.1805779123911440  0.6666360455784780  0.8305736673416250  
  0.5000389251810090  0.0001705813226351  0.1668510643210300  
  0.5000326103424800  0.0001622464470188  0.4998659308145650  
  0.5000384399499820  0.0003584911041727  0.8332808921995249  
  0.5000362998278191  0.3331900394228530  0.1668419006006300  
  0.5000283146893880  0.3331846075050320  0.4998629018468960  
  0.5000358552105200  0.3329993593426580  0.8332848979632890  
  0.5003313057534130  0.6666536687952490  0.1672368500340230  
  0.5000660407714790  0.6666585204959290  0.4996732845887880  
  0.5003313500216610  0.6666496935990051  0.8330842137227560  
  0.8330272568847690  0.0001952179272848  0.1668586498598190  
  0.8330116202174340  0.0001868346923075  0.4998399277263060  
  0.8320056773666950  0.0016715567016803  0.8332937064218980  
  0.8330175684673260  0.3331686857208500  0.1668590106499650  
  0.8330147957034481  0.3331715378982310  0.4998368252518830  
  0.8319843283872860  0.3317104765824790  0.8332801897689990  
  0.8316947651726569  0.6666641519736700  0.1685236776431080  
  0.8319568012578810  0.6666506463132720  0.4983596272253190  
  0.8191055551520070  0.6666441473137330  0.8330933225294220  
  0.1668445972264790  0.1666621688351460  0.0001867047818962  
  0.1667936139971790  0.1666510040288640  0.3334184580783200  
  0.1668258272597920  0.1666500568867240  0.6663939608145670  
  0.1668274854629030  0.4969976632181100  0.0001833551436832  
  0.1668278961767840  0.4995393654988050  0.3336609823583670  
  0.1668112853074890  0.4995428356289220  0.6661567826105850  
  0.1668327887059390  0.8363167066414690  0.0001845250363672  
  0.1668266658824250  0.8338032624852690  0.3336689039333930  
  0.1668113828025430  0.8337910372203440  0.6661538790090870  
  0.5000737053775590  0.1666682485938220  0.0001517810063874  
  0.5000317550363890  0.1666560772889770  0.3333719943391810  
  0.5000308012571320  0.1666545411038530  0.6664761721096470  
  0.5003318032509940  0.4995450246544590  0.0001828170566185  
  0.5000329727899100  0.4997856104408460  0.3333639586939230  
  0.5000325945329180  0.4997534800959330  0.6664461624955250  
  0.5003347536187160  0.8337931025743190  0.0001842428818932  
  0.5000350261326570  0.8335615135561130  0.3333761217189280  
  0.5000349565354510  0.8335909042913130  0.6664411608193460  
  0.8331242138188200  0.1666532155385170  0.0001869567263171  
  0.8331858875867511  0.1666471557981170  0.3333757369564270  
  0.8331536103428760  0.1666473217453370  0.6664359103913849  
  0.8328546509367309  0.4995460146223390  0.0001830544122328  
  0.8331428047734730  0.4997502504929090  0.3333715583912070  
  0.8331564688449400  0.4997526798136110  0.6664449012263560  
  0.8328834956211680  0.8337967098539070  0.0001836789429177  
  0.8331513002199460  0.8336033551637460  0.3333796025302650  
  0.8331638455972270  0.8335928618289760  0.6664421565373710  
  0.9999455641902060  0.1666810854962790  0.0003636872005117  
  0.0000443417729059  0.1666769388124720  0.3332660145957580  
  0.0000443275844972  0.1666743917442660  0.6663595266099590  
  0.0007132487669992  0.5042680246599640  0.9964433039678230  
  0.0001363760506194  0.4997718931133330  0.3331606425372370  
  0.0001347124496505  0.5036839512811681  0.6703853831647280  
  0.0007283600592771  0.8290629901525010  0.9964514123157930  
  0.0001413028647832  0.8335607373499410  0.3331664443911610  
  0.0001399809615279  0.8296465616520550  0.6703747043534490  
  0.3331220286067800  0.1666786674564240  0.9997941734705620  
  0.3331575271417930  0.1666720521299470  0.3332755500954510  
  0.3330066935831370  0.1666710827117300  0.6669251488639110  
  0.3318226008949590  0.5013864481056129  0.9993235899649020  
  0.3329011846317440  0.5003412760518060  0.3331667685375880  
  0.3323917593299230  0.5008143579691340  0.6675230794362510  
  0.3318315532117710  0.8319252105061991  0.9993221380648050  
  0.3329093152399740  0.8329941493403720  0.3331730869751230  
  0.3323995292677610  0.8325014935421680  0.6675174798767149  
  0.6669722438315870  0.1666719063292990  0.9997945038875929  
  0.6668105588832770  0.1666683649823070  0.3333018542276630  
  0.6669605181793730  0.1666684898439780  0.6668983151488280  
  0.6674766181986340  0.5006038097848060  0.9993237303083690  
  0.6669635375918620  0.5002473977328070  0.3332668623464060  
  0.6674715433804010  0.5007195095939641  0.6674220000799950  
  0.6674809955069350  0.8327135876815320  0.9993220112212950  
  0.6669609569457650  0.8330921889533160  0.3332712361091270  
  0.6674699393617090  0.8326010160641890  0.6674190213357180  
  0.0001566248203702  0.9992254825439419  0.1659041660869820  
  0.0000409835621582  0.9993435441339000  0.5006015390055080  
  0.0001566037246832  0.0024952869721773  0.8334783336977550  
  0.0001422671286591  0.3341167640510180  0.1659026566906970  
  0.0000404077206326  0.3340140360805610  0.5006176710151210  
  0.0001420149893292  0.3308197789225180  0.8334708787991190  
  0.0007154072533311  0.6666678402241930  0.1686228792626490  
  0.9999285906415880  0.6666618627732820  0.4973474085642810  
  0.2782241594253920  0.9441806155311450  0.1115590091993330  
  0.3329219847370620  0.9995811794732110  0.4445691578374710  
  0.3326766481128660  0.9993248127058290  0.7777777385427530  
  0.3329316472576660  0.2778949199733420  0.1109790705428540  
  0.3329260170252370  0.3337644653457520  0.4445698911326300  
  0.3326769157718350  0.3340134775967200  0.7777803074066439  
  0.3325827101118220  0.6112656034903310  0.1106312876494190  
  0.3319996363996650  0.6666624907827550  0.4443476358973940  
  0.3360224853721690  0.6666505463631300  0.7777907780860430  
  0.6106804510125490  0.9441788274160960  0.1115531775899190  
  0.6669530046673340  0.9996794892986290  0.4446657289614320  
  0.6673014587337039  0.9993537960470110  0.7777833292112321  
  0.6669420977909370  0.2779918602542750  0.1108807970730010  
  0.6669408634400970  0.3336628424405030  0.4446660391502630  
  0.6672895404934280  0.3339801548913070  0.7777816723180000  
  0.6672901481652570  0.6111680732519530  0.1105330458862780  
  0.6672928314576790  0.6666645635769800  0.4451344584722680  
  0.6640572000441050  0.6666543910546709  0.7777923818298620  
  0.0831317943238332  0.2500049716249530  0.1107482052162820  
  0.1664588505955390  0.1666758424723080  0.4448005065076540  
  0.1670327972308240  0.1666728169713000  0.7777790215285800  
  0.1659713320526000  0.4451385373722230  0.1102452308218740  
  0.1659673187711160  0.5013978040178270  0.4445132935131330  
  0.1630848713609940  0.5034764310807560  0.7777832481583290  
  0.1659789535921800  0.7778053488530720  0.1110381939849460  
  0.1659697823098090  0.8319355997715900  0.4445132126941760  
  0.1630953134197170  0.8298460066632460  0.7777827822229280  
  0.4444498312692320  0.1104056639224570  0.1116854546219490  
  0.4999466729719440  0.1666773081686300  0.4445380515908250  
  0.4999781103595920  0.1666726795895880  0.7777792228137340  
  0.4999466130983240  0.4446515482056550  0.1108643591225590  
  0.4998440566154160  0.5003352653539110  0.4445810008605090  
  0.4999470395832690  0.4996770241682140  0.7777774541193240  
  0.4998482581271020  0.7777125948506410  0.1109603862903650  
  0.4998463750529680  0.8329864307816380  0.4445876908506610  
  0.4999485549097930  0.8336526209354460  0.7777834999263080  
  0.7778424094049901  0.1109748073891550  0.1109558041950790  
  0.8336041675993831  0.1666725799066310  0.4446856183269860  
  0.8330131070261541  0.1666687849789670  0.7777827140275240  
  0.8340936362277280  0.4451380777580520  0.1103583204410090  
  0.8341922338263860  0.5008269213781920  0.4450894864749490  
  0.8369741320302350  0.5035900931290630  0.7777845656850100  
  0.8341985782052030  0.7772366941598530  0.1104580963494190  
  0.8341947449804720  0.8325118263860820  0.4450888355051670  
  0.8369825144631950  0.8297357623005940  0.7777861640387800  
  0.1105909439385970  0.9713013831778450  0.9716741338436070  
  0.1664649809909160  0.0002482744260277  0.2777743620707160  
  0.1659728137478000  0.9990926874734850  0.6116704227181980  
  0.1659738440289330  0.2784517523868360  0.9438752803846880  
  0.1664570396916500  0.3330936980687510  0.2777758968413120  
  0.1659699598324740  0.3342498287432820  0.6116683168292030  
  0.1630896270260040  0.6112268177253239  0.9410193908190650  
  0.1670243632742300  0.6666606115000420  0.3338542062751560  
  0.1630840895474180  0.6666563542672750  0.6697014284090560  
  0.4998865926850230  0.9996037006354330  0.9998028120991760  
  0.4999534784777070  0.9998136945852070  0.3332692086948510  
  0.4999531592705890  0.9996643905963301  0.6669332365745650  
  0.4998823488686030  0.3337469734636260  0.9997944155111260  
  0.4999493921090870  0.3335295809359240  0.3332733590340380  
  0.4999486599793530  0.3336788071348310  0.6669248870750480  
  0.5005366045424821  0.6666662573351450  0.0003629939194809  
  0.4998777621841910  0.6666655374644960  0.3332045282404150  
  0.4998779823866710  0.6666607093893550  0.6664301820115600  
  0.8341794155263500  0.9990913142394650  0.9993123144470100  
  0.8336035267983060  0.9996629798871770  0.3332687552549130  
  0.8340930715932870  0.9991626936846170  0.6674107980186650  
  0.8341621888863739  0.3342496986806940  0.9993069160627850  
  0.8336003423407230  0.3336807048620400  0.3332757215592890  
  0.8340846880584820  0.3341781105314250  0.6674027421908020  
  0.8363883143246080  0.6666640115116000  0.9964512769432620  
  0.8331024988476440  0.6666643135645810  0.3332054536511960  
  0.8370388257839210  0.6666604326761461  0.6703494531437501  
