Li   F 
    1.000000000000000     
  12.0789003372000003   0.0000000000000000   0.0000000000000000
   0.0000000000000000  12.0789003372000003   0.0000000000000000
   0.0000000000000000   0.0000000000000000  12.0789003372000003
Li   F 
108  107  
Direct
  0.9994862514111200  0.0019548519091401  0.0010903352609830  
  0.9998801850418390  0.0003316174847043  0.3333921054746440  
  0.9998795469888220  0.0013762594186773  0.6655246016379120  
  0.9994640273318250  0.3314239368811440  0.0010829704657311  
  0.9998720303330020  0.3330353016903020  0.3334035585495490  
  0.9998717741769600  0.3320122349359170  0.6655226280458630  
  0.9943671393233370  0.6666442224310460  0.0112790400415008  
  0.9994557483789490  0.6666442847953390  0.3339837305931110  
  0.9994524743626130  0.6666536614670659  0.6548394815412240  
  0.3340094291198100  0.0007855515580033  0.0002521250165302  
  0.3335819759089770  0.0001775113104188  0.3334104384253540  
  0.3335969908777510  0.0001915450312140  0.6663413997681720  
  0.3340084414470680  0.3325964130211570  0.0002543609749850  
  0.3335843761100250  0.3331954553623580  0.3334141762444460  
  0.3336008542430730  0.3331794554056560  0.6663359104424910  
  0.3402120659737590  0.6666428441882390  0.0010948788194725  
  0.3341377005230160  0.6666414617599160  0.3339841973356100  
  0.3351396954442050  0.6666353934525731  0.6649659573082261  
  0.6665559323895210  0.0002611305381848  0.0002517192516862  
  0.6665553108622430  0.0001650726435258  0.3333944633560360  
  0.6665392451118630  0.0001821113645590  0.6663562044914850  
  0.6665403699014690  0.3330987613234200  0.0002544185435625  
  0.6665441822628470  0.3332020942107480  0.3334039644317600  
  0.6665263469874180  0.3331854918356430  0.6663450850797970  
  0.6653886077919960  0.6666445710268580  0.0010948587419861  
  0.6663909486811970  0.6666452228567930  0.3334811803158500  
  0.6653883765328030  0.6666391055824830  0.6654678097584180  
  0.9999381975223540  0.1666586584447810  0.1669764792074060  
  0.9999387468100740  0.1666702344572140  0.4997329426358730  
  0.9999383332175430  0.1666530107841670  0.8332809029503350  
  0.9999278066277240  0.4988440347843980  0.1680047103073860  
  0.9999277929895170  0.4988369030476250  0.4986965714248300  
  0.9999262150882660  0.4886476452047010  0.8332831031053020  
  0.9999410145863550  0.8344884100352060  0.1679935807804540  
  0.9999278871052300  0.8344897107329809  0.4986875435994450  
  0.9999406804863180  0.8445966824071151  0.8332771355353120  
  0.3335396469019970  0.1666523070038290  0.1668202767862610  
  0.3335133113820850  0.1666569026033780  0.4998907686732110  
  0.3336920585565080  0.1666498664596650  0.8332819681160760  
  0.3335408807912900  0.4996722267035240  0.1668360441675530  
  0.3335339371194980  0.4996749973295710  0.4998725717703110  
  0.3346895197045110  0.4988325147718270  0.8332920802052330  
  0.3335532524486170  0.8336729653996779  0.1668318990254750  
  0.3335416984138460  0.8336686110472020  0.4998727276811370  
  0.3346900185757140  0.8344722198122270  0.8332934810929370  
  0.6665496605264351  0.1666461900469470  0.1668032329808330  
  0.6665505919578930  0.1666535291817440  0.4998899158226070  
  0.6663969983451780  0.1666448799916150  0.8332992732884820  
  0.6665362340148770  0.4996709768225930  0.1668400819384320  
  0.6665436502429000  0.4996878504777410  0.4998716492622320  
  0.6653865982157749  0.4988307734677240  0.8332872237736170  
  0.6665329022886159  0.8336798694454690  0.1668322912967210  
  0.6665350422558380  0.8336564197431851  0.4998721771840950  
  0.6653940070052540  0.8344803264094480  0.8332918134565330  
  0.1669135904102460  0.0007874310829337  0.1673087178820580  
  0.1669048489538620  0.0002599674328749  0.4998726910404800  
  0.1677301216394650  0.0019672967324738  0.8328143874461840  
  0.1669010628470100  0.3325904576245260  0.1673058637789350  
  0.1668982677080920  0.3331017212213330  0.4998701088575860  
  0.1677273211179790  0.3314243322797100  0.8328055370800060  
  0.1677211083198670  0.6666527468563220  0.1735079491996170  
  0.1677157610353960  0.6666488208191050  0.4986891928754320  
  0.1777903228323860  0.6666361562796650  0.8277862050555670  
  0.5000708761940870  0.0001750393411868  0.1668859248081060  
  0.5000594427500930  0.0001622422636203  0.4998927535995320  
  0.5000704210342950  0.0003250871606397  0.8332196603481210  
  0.5000688934655100  0.3331857307864680  0.1668776418015340  
  0.5000557893746560  0.3331846156246740  0.4998903727247850  
  0.5000684431753580  0.3330330847019810  0.8332237240341130  
  0.5006591073642640  0.6666527920957680  0.1674388262493310  
  0.5001313848177420  0.6666585211627450  0.4997386055378850  
  0.5006591803673710  0.6666495047305290  0.8328181532479770  
  0.8330587283130910  0.0001951965052385  0.1668902281562620  
  0.8330465020000229  0.0001823625895767  0.4998719084411580  
  0.8322414135557420  0.0013762799714314  0.8332316496490150  
  0.8330487614879160  0.3331686623766000  0.1668902044951180  
  0.8330505636516460  0.3331758442280300  0.4998694347787590  
  0.8322221108584030  0.3320020502284680  0.8332210884628209  
  0.8316410525754701  0.6666641373412290  0.1684700226056530  
  0.8321587674424080  0.6666515102851630  0.4986875789300810  
  0.8215693726592690  0.6666481093499360  0.8328236756412580  
  0.1668082671454770  0.1666603866950570  0.0001493076760468  
  0.1667641574953580  0.1666507031404690  0.3334829913768830  
  0.1667899484551970  0.1666496540349840  0.6663669845284370  
  0.1667910664961520  0.4942148661038460  0.0001466252777718  
  0.1667901668606860  0.4993032001859130  0.3339793300821800  
  0.1667766131824780  0.4993059777738860  0.6658750030820290  
  0.1668026261645110  0.8390759964561240  0.0001476517082537  
  0.1667894020545760  0.8340285874299340  0.3339841668436560  
  0.1667768461121000  0.8340184716541610  0.6658741286885290  
  0.5001405029835200  0.1666689816556040  0.0001213484739822  
  0.5000592670713080  0.1666560400115810  0.3333983652917420  
  0.5000583180179350  0.1666545237875850  0.6664801977427220  
  0.5006576869799200  0.4993090016001820  0.0001462918257218  
  0.5000649705706190  0.4997530720491880  0.3333950378076550  
  0.5000645794820070  0.4997273054846690  0.6664530940168800  
  0.5006627346358880  0.8340252215321230  0.0001474889650837  
  0.5000668660161340  0.8335933499055340  0.3334063696623700  
  0.5000668180673880  0.8336165821986580  0.6664474608035820  
  0.8330961386605080  0.1666532223207470  0.0001495289341875  
  0.8331896569943850  0.1666470946117260  0.3334022238656400  
  0.8331637862771760  0.1666471878785460  0.6664470521865480  
  0.8325689605512639  0.4993118392775530  0.0001464760869823  
  0.8331486259260150  0.4997240013838460  0.3334026427747570  
  0.8331592838241730  0.4997257751658000  0.6664504552779320  
  0.8325967911103620  0.8340284354994910  0.0001470057687882  
  0.8331575385952090  0.8336284623226430  0.3334104379917450  
  0.8331673088646030  0.8336200741190820  0.6664468974159310  
  0.9998727090280890  0.1666810456650010  0.0002909013078849  
  0.0000854286351952  0.1666766163352660  0.3332088248722730  
  0.0000854189601398  0.1666744718889750  0.6664915918082240  
  0.0014244290101075  0.5042679872965080  0.9971546038905790  
  0.0002716649785910  0.4999799296426200  0.3330024324476070  
  0.0002700321410316  0.5031094796500990  0.6698343744685000  
  0.0014387354775991  0.8290624085737690  0.9971611212657689  
  0.0002769487571612  0.8333482867502300  0.3330071922530070  
  0.0002755335694857  0.8302168373918730  0.6698257280913320  
  0.3332540552467830  0.1666785656829570  0.9998352340534000  
  0.3331450138935140  0.1666721872649790  0.3332179161213060  
  0.3330242738288400  0.1666710778640380  0.6669427142218890  
  0.3312713743864750  0.5019608791862420  0.9994588113568600  
  0.3328207766546140  0.5004358526951410  0.3330075296409520  
  0.3324131085039350  0.5008143515993591  0.6675444167910460  
  0.3312828480185170  0.8313550199443400  0.9994577227839940  
  0.3328287544287960  0.8328959487684390  0.3330138036889570  
  0.3324207980293250  0.8325014829105730  0.6675386835602380  
  0.6669151236987860  0.1666721678140560  0.9998355856998420  
  0.6667830619852640  0.1666683628406390  0.3332743348633540  
  0.6669028986010800  0.1666683585500120  0.6668857774555900  
  0.6673184066555680  0.5003957366264160  0.9994590004442330  
  0.6669060658939470  0.5002473968870190  0.3332093936605530  
  0.6673123370274040  0.5006249431777900  0.6673416333316170  
  0.6673216525596640  0.8329260536349350  0.9994576518048670  
  0.6669034842496160  0.8330921906214140  0.3332137222945730  
  0.6673106010656580  0.8326991999502910  0.6673384079141370  
  0.0002941219391772  0.9991918657995170  0.1658889131286330  
  0.0000804207026448  0.9994085808063320  0.5004812317066650  
  0.0002940198104611  0.0018076299608225  0.8336170789494800  
  0.0002808756791026  0.3341508563004250  0.1658878610989230  
  0.0000814859275664  0.3339472246888490  0.5004941441117550  
  0.0002806117563878  0.3315132010328700  0.8336108980993731  
  0.0014251375874892  0.6666661717407720  0.1673720270840780  
  0.9998560230265170  0.6666629630532840  0.4978779242364410  
  0.2234316616420880  0.8886763202143370  0.0567733840864832  
  0.3328415725224620  0.9994770707530169  0.3888214518977050  
  0.3327583701301360  0.9993922841630860  0.7222222175307420  
  0.3328492325684280  0.2221277008449790  0.0556171437633566  
  0.3328446981528190  0.3338686277375370  0.3888222072578880  
  0.3327594936766760  0.3339475454447940  0.7222243376696720  
  0.3325699886367990  0.5558694641548310  0.0553386212982332  
  0.3314132237465940  0.6666614721654440  0.3879521963062870  
  0.3355716559689630  0.6666524147526760  0.7222326491787920  
  0.5543576937547740  0.8886744467527730  0.0567684935786374  
  0.6668993164129020  0.9996754676264030  0.3890149303647660  
  0.6671774140121940  0.9994505886249100  0.7222266342803750  
  0.6668905290445790  0.2223253111802990  0.0554222843535825  
  0.6668874605591170  0.3336670426799770  0.3890151619643230  
  0.6671664850116130  0.3338846095988690  0.7222253251854980  
  0.6671667978491770  0.5556711388021330  0.0551440621851071  
  0.6671691698139380  0.6666646671843490  0.3895265739098190  
  0.6645802701407250  0.6666567062753400  0.7222338114325670  
  0.9998402470448650  0.3333369305378970  0.0551796247545724  
  0.1665017334403840  0.1666752606167140  0.3892598954477720  
  0.1669593825092690  0.1666729805129350  0.7222232836651870  
  0.1661117188974540  0.3894452316560470  0.0547765933415647  
  0.1661060640240000  0.5019700631585310  0.3880841997623040  
  0.1638014669914510  0.5026940932186430  0.7222266476907040  
  0.1661151530186520  0.7230960747568250  0.0563569125652705  
  0.1661100653347350  0.8313611236305580  0.3880852733923350  
  0.1638086664444460  0.8306302264333210  0.7222262353552650  
  0.3888938611904750  0.0541369250641068  0.0568737140261675  
  0.4998903569858870  0.1666769408014730  0.3889134197121540  
  0.4999506217801440  0.1666736862640830  0.7222234184013980  
  0.4998902425495400  0.3890561394421540  0.0554084342522856  
  0.4996873993482040  0.5004333810736979  0.3888303275969920  
  0.4998914636918880  0.4997890562716380  0.7222219694401910  
  0.4996906932418310  0.7223352035360340  0.0556027841516027  
  0.4996900439663530  0.8328912753305030  0.3888357096581030  
  0.4998914619346520  0.8335384034333440  0.7222267655667950  
  0.7220868438469100  0.0552817875768525  0.0555991573935657  
  0.8336225374725640  0.1666715961173610  0.3890305428152490  
  0.8331112193559060  0.1666695168687580  0.7222261556414440  
  0.8340140790910771  0.3894439687568220  0.0550045583283421  
  0.8342115910869770  0.5008279433259160  0.3892372154113840  
  0.8363154024424519  0.5029214580123380  0.7222275987452780  
  0.8342164578745890  0.7219556766678110  0.0552008575723448  
  0.8342147807336960  0.8325129754852160  0.3892368107661500  
  0.8363228574324350  0.8304065798183520  0.7222288625271320  
  0.0553315309042475  0.9435446296708390  0.9441736163000770  
  0.1665083258504300  0.0008352061061245  0.2222194743908620  
  0.1661122519887930  0.9991260571851870  0.5558541038015290  
  0.1661129590349760  0.2226129454422860  0.8885824995414850  
  0.1665006257258170  0.3325007573145770  0.2222206456020070  
  0.1661086835626480  0.3342155976614830  0.5558529591326080  
  0.1638043558035490  0.5557971371200950  0.8862972349488840  
  0.1669501255818420  0.6666584689215540  0.3343775728464640  
  0.1637975426483890  0.6666549597053760  0.6684669904692910  
  0.4997663473736080  0.9995386912307890  0.9998422507055620  
  0.4999007129099410  0.9997879992019990  0.3332149281107490  
  0.4999003723070390  0.9996682581171260  0.6669470340381880  
  0.4997587775568770  0.3338137772612550  0.9998354760090540  
  0.4998965667986970  0.3335556266824180  0.3332200125602110  
  0.4998958394137740  0.3336748888704900  0.6669386110108420  
  0.5010670796254429  0.6666651278311591  0.0002904437937019  
  0.4997539386449080  0.6666652618260041  0.3330805149348920  
  0.4997541299052340  0.6666612896828140  0.6666272456817520  
  0.8341643142714760  0.9991246706583330  0.9994498562965650  
  0.8336158690064720  0.9996669363314650  0.3332156207990450  
  0.8340073942633240  0.9992667167362090  0.6673279811242590  
  0.8341474060746630  0.3342155780572330  0.9994455059852070  
  0.8336124055884540  0.3336764397266880  0.3332224123392040  
  0.8339997745489360  0.3340742352310360  0.6673203138146280  
  0.8351371685152880  0.6666656721664030  0.9971610994009840  
  0.8332979820646500  0.6666642941008970  0.3330823426152560  
  0.8364466747143740  0.6666611047643800  0.6697614747704110  
