Ni   S 
   1.00000000000000     
  20.0000000000000000   0.0000000000000000   0.0000000000000000
   0.0000000000000000  20.0000000000000000   0.0000000000000000
   0.0000000000000000   0.0000000000000000  20.0000000000000000
Ni   S 
55  1  
Direct
  0.3501934674725080  0.5959024344225410  0.4103723950622040  
  0.4515613538553540  0.6632926674525810  0.3772517938926190  
  0.4120307529059060  0.6625250740652080  0.4969812274660370  
  0.5130287327578530  0.7233116835183960  0.4643739047978810  
  0.5147249959499400  0.6085420577849160  0.4642739432695960  
  0.5771277000146851  0.6650449152221470  0.3777260468827990  
  0.6159204041484611  0.6653143626340280  0.4969560679253820  
  0.3164075297053370  0.5929097042781420  0.5274547735054750  
  0.3488699648737640  0.4892792366147130  0.5840786884856400  
  0.4148853539577080  0.5421606697748160  0.4967923438509420  
  0.4130452154930640  0.5967740024037340  0.6040358970715261  
  0.5138345534778280  0.6634492750988490  0.5712018575589040  
  0.5147833419683610  0.5428810970477540  0.5702484544355290  
  0.6154959244196330  0.5447169584709430  0.4969566666633580  
  0.6162482022111180  0.5987124912944640  0.6044064932153290  
  0.3926778919293030  0.5937332914755800  0.2955213422175190  
  0.3517007302415890  0.4889308149001930  0.3440201571916360  
  0.4537421244897710  0.4907519618577180  0.2702843067550870  
  0.4535692114457390  0.5428490770274340  0.3788789501728400  
  0.5151621519553869  0.5980364022101770  0.2908983126730220  
  0.5167692868398670  0.4383706596569680  0.3587242773281860  
  0.5792386169388450  0.4922535754360380  0.2705452455260160  
  0.5775419483817860  0.5445014599006160  0.3791480130365840  
  0.3125849983919840  0.4879223647720750  0.4641655723197430  
  0.3529269104255380  0.3810573163019270  0.5169998570910720  
  0.4164147771795400  0.4367600307384980  0.4316175349310500  
  0.4547811361688830  0.4374973053562810  0.5497861230820080  
  0.5159020843357280  0.4907242408042900  0.4645141143923300  
  0.5173266720690320  0.3728283026083830  0.4641454364985050  
  0.6169290733953550  0.4394169190022690  0.4315539323591580  
  0.5785772606315051  0.4384158242569070  0.5495548679010580  
  0.6796465527615960  0.6000330578504320  0.4109826754278170  
  0.7125397206252940  0.5969509614293710  0.5289830685205250  
  0.6807147990411120  0.4923065173165990  0.5837720375358870  
  0.6374583679289570  0.5966966968139570  0.2960048338969940  
  0.6809614667143720  0.4932109702393670  0.3444987714473340  
  0.7195660970777450  0.4933217542797760  0.4640875748568830  
  0.6820427035995490  0.3855769184856110  0.5174613238973080  
  0.4524618517559920  0.4917292246715020  0.6629736394490640  
  0.5153770465075380  0.5958945819329460  0.6725566016847960  
  0.5792129340027190  0.4914845648750440  0.6574884310569830  
  0.3936953959099510  0.3835451503425350  0.6331108487710250  
  0.4549221542852780  0.3164613103363650  0.5498717095925730  
  0.5184321765526010  0.3817707791714970  0.6387686456140140  
  0.5808581225780780  0.3180404928666650  0.5504726493634921  
  0.6404085037005980  0.3875162722813810  0.6320678269799340  
  0.4157567771153690  0.3829036058326030  0.3234360920047620  
  0.5174263848297400  0.3873391941013220  0.2555056162946560  
  0.6194156046348380  0.3859376703730320  0.3235985697323760  
  0.3195289222690360  0.3846002845468060  0.3986058443861960  
  0.4164362530937280  0.3164406854716260  0.4308107416482800  
  0.5183737893787990  0.3181125766528720  0.3564431808145800  
  0.6199732414350050  0.3191356370718670  0.4302679764791430  
  0.7155000996085550  0.3892917598240470  0.3997369028384340  
  0.5195863349356670  0.2579956206460000  0.4627442939540600  
  0.4009074111265320  0.4323525046982580  0.7062364831938840  
