Cu   O                                  
   1.00000000000000     
     4.4270852866191799   -2.5559788819550100    0.0000000000000000
     0.0000000000000000    5.1119577639100298    0.0000000000000000
     0.0000000000000000    0.0000000000000000   15.0000000000000000
   Cu   O 
    16     1
Selective dynamics
Direct
  0.0000000000000000  0.0000000000000000  0.0000000000000000   F   F   F
  0.8308430263885555  0.6691945760231973  0.2797696877629284   T   T   T
  0.5156061112170243  0.5259788754371516  0.4167539557369052   T   T   T
  0.5000000000000000  0.5000000000000000  0.0000000000000000   F   F   F
  0.1666666666666643  0.8333333333333357  0.1391298678693147   F   F   F
  0.3305936739755696  0.6743524816340227  0.2791431295297094   T   T   T
  1.0047039824659714  0.4953768043324066  0.4204733629579488   T   T   T
  0.6666666666666643  0.8333333333333355  0.1391298678693147   F   F   F
  0.0000000000000000  0.5000000000000000  0.0000000000000000   F   F   F
  0.8256595515921138  0.1694134846879595  0.2791480532513311   T   T   T
  0.4824370857427260  1.0176484089583966  0.4193327546498866   T   T   T
  0.5000000000000000 -0.0000000000000006  0.0000000000000000   F   F   F
  0.1666666666666643  0.3333333333333357  0.1391298678693147   F   F   F
  0.3277738753362224  0.1722498402574387  0.2762275287010562   T   T   T
  0.9741582911550080  0.9845262317729249  0.4167716466659157   T   T   T
  0.6666666666666643  0.3333333333333357  0.1391298678693147   F   F   F
  0.2444879954668681  0.2555338122712554  0.4981956334109988   T   T   T
 
             NaN             NaN             NaN
             NaN             NaN             NaN
             NaN             NaN             NaN
             NaN             NaN             NaN
             NaN             NaN             NaN
             NaN             NaN             NaN
             NaN             NaN             NaN
             NaN             NaN             NaN
             NaN             NaN             NaN
             NaN             NaN             NaN
             NaN             NaN             NaN
             NaN             NaN             NaN
             NaN             NaN             NaN
             NaN             NaN             NaN
             NaN             NaN             NaN
             NaN             NaN             NaN
             NaN             NaN             NaN
