Li   Nb   Mo   O                        
   1.00000000000000     
    22.7851428986000002    0.0000000000000000    0.0000000000000000
     0.0000000000000000    3.8768503666000003    0.0000000000000000
    -9.9730516296000005    0.0000024128000000   15.1282481845000003
   Li   Nb   Mo   O 
     1    24     2    66
Direct
  0.3252868349602726  0.8283470240352808  0.6249428324564006
  0.3672857933986897  0.0052649058034681  0.0461080147488195
  0.6338109694050816  0.0102077208779932  0.9540020598351253
  0.8653870691308032  0.5077601614512748  0.0447823185859896
  0.1311748538457888  0.5088982949094402  0.9554272590213249
  0.2488795782292513  0.0035695901971650  0.1370782028936332
  0.7521955624091989  0.0031729515825578  0.8617553580090931
  0.7478752962539460  0.5039314569615487  0.1378044680610274
  0.2494965329436366  0.5016537048766085  0.8650827767473351
  0.1295619208596128  0.9971059863060264  0.2299386630836071
  0.8690123010751089  0.9989740916194926  0.7674963189970478
  0.6317675692344754  0.4995043999615853  0.2327967508191928
  0.3700895541749766  0.4652555028123095  0.7753693584365315
  0.4198745949225526  0.9688931515954494  0.3787460187328964
  0.5843247516379761  0.9668787233348011  0.6172830108521516
  0.9174034199776947  0.4663162974697604  0.3817988135239014
  0.0817427934923468  0.4641074262083886  0.6205016920465469
  0.2975492715904523  0.0257421930719183  0.4649803123776163
  0.7028897903026180  0.0039815061679907  0.5263154536585198
  0.7987750917091704  0.5037018834424501  0.4731932414775987
  0.1976480348163413  0.4835271902558889  0.5238538657874526
  0.4680805382659565  0.0104415996075891  0.7125269298237595
  0.5376138193962047  0.0033317921725184  0.2868114425887695
  0.9634454979487664  0.5013791587709016  0.7127657985371904
  0.0329263519038790  0.5011414013048855  0.2839512930381198
  0.9992946572166554  0.2514259286603297  0.0005024196153404
  0.5004261308094863  0.7476942689379040  0.0000339121858789
 -0.0006873258427839  0.4887028317810745  0.5010008830545348
  0.5001770680737241  0.9915096481517176  0.4995332075485824
  0.1482395661470181  0.0036516776730558  0.9916298207010170
  0.8503658808894470  0.0042686045602519  0.0089585487123017
  0.6491088849552449  0.5054891458253291  0.9902802998821617
  0.3508984917397642  0.5009201087700635  0.0099406646988047
  0.3031845724323262  0.0007462569929713  0.0814557630476801
  0.6959323425508254  0.0042587118875076  0.9169590876515524
  0.8030537777401735  0.5044450873133366  0.0812819698975337
  0.1957325941584447  0.4978655320402113  0.9199211628905641
  0.0337284710123744  1.0002758581153812  0.0996128356871051
  0.9658080955698309  1.0005076967815731  0.9025603759040933
  0.5342884365758580  0.4993783072007780  0.0981393481782149
  0.4661827311975568  0.4929538283327928  0.9004518791600498
  0.4500069757361350  0.0031785673328363  0.1555698204031034
  0.5496677201462535  0.0088405957553999  0.8439732460654734
  0.9493395272407104  0.5015463019277089  0.1557899219527737
  0.0496493318181214  0.5054720642692744  0.8450925844950667
  0.1802093912912625  0.0004400882463612  0.1784119506335827
  0.8205151198071556  0.0037032239066840  0.8232589018918045
  0.6798274231765904  0.5043694530858611  0.1765459438698100
  0.3214977733057665  0.4824527308665595  0.8286260702105648
  0.0490248151420938 -0.0003084590129890  0.2709667157721161
  0.9503219474531712  0.0018674756105473  0.7304542338678073
  0.5503872080011467  0.5024953447147837  0.2692125791903337
  0.4493186868143781  0.5032499927674075  0.7262200831922571
  0.3258499771208798  1.0006534297627379  0.2490989759093445
  0.6755915696859309  0.9990301113774291  0.7495182993442775
  0.8254185718753275  0.4988634462761313  0.2494850508028758
  0.1747785827622045  0.4987496680067310  0.7511101810984854
  0.4770953977807730  1.0024020126283839  0.3256500484425706
  0.5277277144496862  1.0051845561535193  0.6748668038369435
  0.9771502559067435  0.4998374699014596  0.3280635575303696
  0.0241335630594317  0.4962992185740036  0.6745746249242498
  0.2063879604010198  0.0101426624209329  0.3496554021536573
  0.7929878236282392  0.0021824732439108  0.6511616202572775
  0.7077523034808851  0.5022662532470132  0.3486981799171838
  0.2918487873495564  0.4713728570355248  0.6563195897679632
  0.3518131686484419  0.0156309976443837  0.4197622352615231
  0.6482185130027951  1.0009131417487953  0.5734654409951473
  0.8525380832586240  0.4996405979626988  0.4250837798718328
  0.1450979154506253  0.4913256043127204  0.5725205703154534
  0.2271617731265545 -0.0121504281440539  0.5272257502310084
  0.7790048324051567  0.0031739105388168  0.4810549639369509
  0.7221804216998127  0.5032506571340100  0.5182936332598123
  0.2822969561403737  0.5149373751657491  0.4849349668044240
  0.3816097651724947  0.0149847553641854  0.5928060588359622
  0.6223983289311725  0.0028140105239555  0.4034901932301131
  0.8785509238734687  0.5030404853184585  0.5959877911373758
  0.1229615104835432  0.4917538928088335  0.4042409864812532
  0.0907570344966997  0.9894346695366970  0.6318581863460795
  0.9102674888641177  0.9921469003997347  0.3683755833063578
  0.5912242313729494  0.4933762582420942  0.6300430392688228
  0.4108523573963830  0.4958795376806125  0.3678598482327196
  0.3897918088983255  0.9764782419837883  0.7622027299455687
  0.6060736490916000  0.0015561456487517  0.2312780042237712
  0.8943580648135350  0.5012578601190797  0.7684722450134166
  0.1060673008017843  0.5011133797652588  0.2322185455463775
  0.2747791304796299 -0.0015668107058089  0.8976884448901845
  0.7241131502063844  0.0047518651675493  0.1025730788587875
  0.7757735509201210  0.5038251657246183  0.8970157566671368
  0.2240059763338910  0.5029061026353139  0.1040835834591414
  0.4290326013579273 -0.0011125234767877  0.9866641331085330
  0.5710322934428415  0.0015382579973715  0.0128914819268100
  0.9282189294659068  0.5040078660438199  0.9870309221951571
  0.0708873216960554  0.5042340596043672  0.0142735331497435
 
  0.00000000E+00  0.00000000E+00  0.00000000E+00
  0.00000000E+00  0.00000000E+00  0.00000000E+00
  0.00000000E+00  0.00000000E+00  0.00000000E+00
  0.00000000E+00  0.00000000E+00  0.00000000E+00
  0.00000000E+00  0.00000000E+00  0.00000000E+00
  0.00000000E+00  0.00000000E+00  0.00000000E+00
  0.00000000E+00  0.00000000E+00  0.00000000E+00
  0.00000000E+00  0.00000000E+00  0.00000000E+00
  0.00000000E+00  0.00000000E+00  0.00000000E+00
  0.00000000E+00  0.00000000E+00  0.00000000E+00
  0.00000000E+00  0.00000000E+00  0.00000000E+00
  0.00000000E+00  0.00000000E+00  0.00000000E+00
  0.00000000E+00  0.00000000E+00  0.00000000E+00
  0.00000000E+00  0.00000000E+00  0.00000000E+00
  0.00000000E+00  0.00000000E+00  0.00000000E+00
  0.00000000E+00  0.00000000E+00  0.00000000E+00
  0.00000000E+00  0.00000000E+00  0.00000000E+00
  0.00000000E+00  0.00000000E+00  0.00000000E+00
  0.00000000E+00  0.00000000E+00  0.00000000E+00
  0.00000000E+00  0.00000000E+00  0.00000000E+00
  0.00000000E+00  0.00000000E+00  0.00000000E+00
  0.00000000E+00  0.00000000E+00  0.00000000E+00
  0.00000000E+00  0.00000000E+00  0.00000000E+00
  0.00000000E+00  0.00000000E+00  0.00000000E+00
  0.00000000E+00  0.00000000E+00  0.00000000E+00
  0.00000000E+00  0.00000000E+00  0.00000000E+00
  0.00000000E+00  0.00000000E+00  0.00000000E+00
  0.00000000E+00  0.00000000E+00  0.00000000E+00
  0.00000000E+00  0.00000000E+00  0.00000000E+00
  0.00000000E+00  0.00000000E+00  0.00000000E+00
  0.00000000E+00  0.00000000E+00  0.00000000E+00
  0.00000000E+00  0.00000000E+00  0.00000000E+00
  0.00000000E+00  0.00000000E+00  0.00000000E+00
  0.00000000E+00  0.00000000E+00  0.00000000E+00
  0.00000000E+00  0.00000000E+00  0.00000000E+00
  0.00000000E+00  0.00000000E+00  0.00000000E+00
  0.00000000E+00  0.00000000E+00  0.00000000E+00
  0.00000000E+00  0.00000000E+00  0.00000000E+00
  0.00000000E+00  0.00000000E+00  0.00000000E+00
  0.00000000E+00  0.00000000E+00  0.00000000E+00
  0.00000000E+00  0.00000000E+00  0.00000000E+00
  0.00000000E+00  0.00000000E+00  0.00000000E+00
  0.00000000E+00  0.00000000E+00  0.00000000E+00
  0.00000000E+00  0.00000000E+00  0.00000000E+00
  0.00000000E+00  0.00000000E+00  0.00000000E+00
  0.00000000E+00  0.00000000E+00  0.00000000E+00
  0.00000000E+00  0.00000000E+00  0.00000000E+00
  0.00000000E+00  0.00000000E+00  0.00000000E+00
  0.00000000E+00  0.00000000E+00  0.00000000E+00
  0.00000000E+00  0.00000000E+00  0.00000000E+00
  0.00000000E+00  0.00000000E+00  0.00000000E+00
  0.00000000E+00  0.00000000E+00  0.00000000E+00
  0.00000000E+00  0.00000000E+00  0.00000000E+00
  0.00000000E+00  0.00000000E+00  0.00000000E+00
  0.00000000E+00  0.00000000E+00  0.00000000E+00
  0.00000000E+00  0.00000000E+00  0.00000000E+00
  0.00000000E+00  0.00000000E+00  0.00000000E+00
  0.00000000E+00  0.00000000E+00  0.00000000E+00
  0.00000000E+00  0.00000000E+00  0.00000000E+00
  0.00000000E+00  0.00000000E+00  0.00000000E+00
  0.00000000E+00  0.00000000E+00  0.00000000E+00
  0.00000000E+00  0.00000000E+00  0.00000000E+00
  0.00000000E+00  0.00000000E+00  0.00000000E+00
  0.00000000E+00  0.00000000E+00  0.00000000E+00
  0.00000000E+00  0.00000000E+00  0.00000000E+00
  0.00000000E+00  0.00000000E+00  0.00000000E+00
  0.00000000E+00  0.00000000E+00  0.00000000E+00
  0.00000000E+00  0.00000000E+00  0.00000000E+00
  0.00000000E+00  0.00000000E+00  0.00000000E+00
  0.00000000E+00  0.00000000E+00  0.00000000E+00
  0.00000000E+00  0.00000000E+00  0.00000000E+00
  0.00000000E+00  0.00000000E+00  0.00000000E+00
  0.00000000E+00  0.00000000E+00  0.00000000E+00
  0.00000000E+00  0.00000000E+00  0.00000000E+00
  0.00000000E+00  0.00000000E+00  0.00000000E+00
  0.00000000E+00  0.00000000E+00  0.00000000E+00
  0.00000000E+00  0.00000000E+00  0.00000000E+00
  0.00000000E+00  0.00000000E+00  0.00000000E+00
  0.00000000E+00  0.00000000E+00  0.00000000E+00
  0.00000000E+00  0.00000000E+00  0.00000000E+00
  0.00000000E+00  0.00000000E+00  0.00000000E+00
  0.00000000E+00  0.00000000E+00  0.00000000E+00
  0.00000000E+00  0.00000000E+00  0.00000000E+00
  0.00000000E+00  0.00000000E+00  0.00000000E+00
  0.00000000E+00  0.00000000E+00  0.00000000E+00
  0.00000000E+00  0.00000000E+00  0.00000000E+00
  0.00000000E+00  0.00000000E+00  0.00000000E+00
  0.00000000E+00  0.00000000E+00  0.00000000E+00
  0.00000000E+00  0.00000000E+00  0.00000000E+00
  0.00000000E+00  0.00000000E+00  0.00000000E+00
  0.00000000E+00  0.00000000E+00  0.00000000E+00
  0.00000000E+00  0.00000000E+00  0.00000000E+00
  0.00000000E+00  0.00000000E+00  0.00000000E+00
