Ag   
   1.00000000000000     
  15.3612477337200009   0.0000000000000000   0.0000000000000000
   0.0000000000000000  15.3612477337200009   0.0000000000000000
   0.0000000000000000   0.0000000000000000  20.0000000000000000
Ag   
2  
Selective dynamics
Direct
  0.6205393683339545  0.3748186251700154  0.6113134379103631 T T T
  0.4407191996091184  0.3753464715751533  0.6109833865746312 T T T
