Pd  C  O 
 1.0000000000000000
     8.3099002837999993    0.0000000000000000    0.0000000000000000
    -4.1549501418999997    7.1965847487000003    0.0000000000000000
     0.0000000000000000    0.0000000000000000   16.5235004425000014
  36   1   2
Selective dynamics
Cartesian
  8.3025744620996900 -0.0096618065871507  7.2455992121418316   T   T   T
 -0.0059831282043160  1.6069973743847230  2.6477257109062280   F   F   F
  1.3769476315395814  0.8072637436130238  4.9362170502813623   T   T   T
  2.7682788917053323 -0.0002226480974235  7.2381988192648796   T   T   T
  2.7639559333947092  1.6069973743847230  2.6477257109062280   F   F   F
  4.1463339341022722  0.8028238416979848  4.9256792667671796   T   T   T
  5.5313084906413170  0.0008574543104003  7.2151980849504334   T   T   T
  5.5339780939965992  1.6069973743847230  2.6477257109062280   F   F   F
  6.9177545379679559  0.8048106615252872  4.9348542743971917   T   T   T
  6.8961872232193908  2.3917501376573176  7.2415185295755515   T   T   T
 -1.3909942085052609  4.0059069345163794  2.6477257109062280   F   F   F
 -0.0070642282879759  3.2014521558606410  4.9289655144373716   T   T   T
  1.3834453643083044  2.3897216945398192  7.3018701236692225   T   T   T
  1.3789448530937642  4.0059069345163794  2.6477257109062280   F   F   F
  2.7565990663973503  3.1998560488318515  4.9341141171878773   T   T   T
  4.1456633240857688  2.4008973017034352  7.2103382348533245   T   T   T
  4.1489670136956542  4.0059069345163794  2.6477257109062280   F   F   F
  5.5321030314021851  3.2010904952689327  4.9257166537680765   T   T   T
  5.5251771629836650  4.7940243572963794  7.2077215766408997   T   T   T
 -2.7759637393047738  6.4047445288005260  2.6477257109062280   F   F   F
 -1.3906787228221373  5.6022974637718530  4.9292200016636043   T   T   T
  0.0000756575098629  4.8144499371624327  7.2314526382084443   T   T   T
 -0.0060246777057485  6.4047445288005260  2.6477257109062280   F   F   F
  1.3751170988186756  5.6011662958317112  4.9288381295664498   T   T   T
  2.7675183878841074  4.8003880916135806  7.2118686384194683   T   T   T
  2.7639974828961416  6.4047445288005260  2.6477257109062280   F   F   F
  4.1462991462760028  5.6034165228993746  4.9237174325022393   T   T   T
  8.3039171555956539  0.0077723115286082  0.3861542053412234   F   F   F
  2.7639559333947390  0.0077723115286082  0.3861542053412234   F   F   F
  5.5339780939966285  0.0077723115286082  0.3861542053412234   F   F   F
  6.9189476247961403  2.4066099058127550  0.3861542053412234   F   F   F
  1.3789864025952261  2.4066099058127550  0.3861542053412234   F   F   F
  4.1490085631971159  2.4066099058127550  0.3861542053412234   F   F   F
  5.5339365444951953  4.8055194659444114  0.3861542053412234   F   F   F
 -0.0060246777057187  4.8055194659444114  0.3861542053412234   F   F   F
  2.7639974828961709  4.8055194659444114  0.3861542053412234   F   F   F
  1.4808617548850285  0.8917232460468347 10.8454403605599268   T   T   T
  0.6887969327473368  2.4201063292868175 10.8202970799273164   T   T   T
  1.8694888231915583 -0.0747774738179455 11.4113262305892889   T   T   T
