Pd  C  O 
 1.0000000000000000
     8.3099002837999993    0.0000000000000000    0.0000000000000000
    -4.1549501418999997    7.1965847487000003    0.0000000000000000
     0.0000000000000000    0.0000000000000000   16.5235004425000014
  36   1   2
Selective dynamics
Cartesian
  8.3006490116279323 -0.0210050120370224  7.2594974706169753   T   T   T
 -0.0059831282043160  1.6069973743847230  2.6477257109062280   F   F   F
  1.3759798296751560  0.8068016235564461  4.9404784751845083   T   T   T
  2.7715487718624683 -0.0057816294981720  7.2491667088040419   T   T   T
  2.7639559333947092  1.6069973743847230  2.6477257109062280   F   F   F
  4.1446180728954722  0.7999491416266680  4.9235409270762789   T   T   T
  5.5292844222179101 -0.0039171947881610  7.2112179459296746   T   T   T
  5.5339780939965992  1.6069973743847230  2.6477257109062280   F   F   F
  6.9167561680113172  0.8034339424445777  4.9382530850052317   T   T   T
  6.8803896851685016  2.3822813491730073  7.2539379893243607   T   T   T
 -1.3909942085052609  4.0059069345163794  2.6477257109062280   F   F   F
 -0.0075776299744025  3.1980509257254908  4.9286778973722027   T   T   T
  1.3876694657054589  2.3783499252819231  7.3509588671676251   T   T   T
  1.3789448530937642  4.0059069345163794  2.6477257109062280   F   F   F
  2.7519815045696023  3.1954758301985482  4.9379810376373685   T   T   T
  4.1437157056334684  2.3970927519775809  7.2041484189476801   T   T   T
  4.1489670136956542  4.0059069345163794  2.6477257109062280   F   F   F
  5.5308041981093732  3.1976926453234982  4.9235205726552724   T   T   T
  5.5193863342079599  4.7865235981547052  7.1988811702632178   T   T   T
 -2.7759637393047738  6.4047445288005260  2.6477257109062280   F   F   F
 -1.3904503800032042  5.6003805782475142  4.9296167658544521   T   T   T
  0.0044495633859019  4.8201558995808087  7.2378929140896284   T   T   T
 -0.0060246777057485  6.4047445288005260  2.6477257109062280   F   F   F
  1.3728456210436497  5.5989517204699935  4.9287135845749193   T   T   T
  2.7699060977911110  4.7969553093662229  7.2061614242148666   T   T   T
  2.7639974828961416  6.4047445288005260  2.6477257109062280   F   F   F
  4.1445921374519132  5.6020415326684647  4.9200721806933760   T   T   T
  8.3039171555956539  0.0077723115286082  0.3861542053412234   F   F   F
  2.7639559333947390  0.0077723115286082  0.3861542053412234   F   F   F
  5.5339780939966285  0.0077723115286082  0.3861542053412234   F   F   F
  6.9189476247961403  2.4066099058127550  0.3861542053412234   F   F   F
  1.3789864025952261  2.4066099058127550  0.3861542053412234   F   F   F
  4.1490085631971159  2.4066099058127550  0.3861542053412234   F   F   F
  5.5339365444951953  4.8055194659444114  0.3861542053412234   F   F   F
 -0.0060246777057187  4.8055194659444114  0.3861542053412234   F   F   F
  2.7639974828961709  4.8055194659444114  0.3861542053412234   F   F   F
  1.4509599833501954  0.7995538638633013 10.0411479738771057   T   T   T
  0.4018707682643887  2.7124198540438105 10.0464443723185077   T   T   T
  1.7090170702468426  0.1001983767040427 10.9635382390663203   T   T   T
