Li   F 
    1.000000000000000     
  12.0789003372000003   0.0000000000000000   0.0000000000000000
   0.0000000000000000  12.0789003372000003   0.0000000000000000
   0.0000000000000000   0.0000000000000000  12.0789003372000003
Li   F 
108  107  
Direct
  0.9992133574758310  0.0019547765626058  0.0008177956708764  
  0.9998172501870290  0.0002967972190078  0.3334239260565040  
  0.9998166053515120  0.0010801093881483  0.6657636325507210  
  0.9991932842092620  0.3314238761903570  0.0008121917494108  
  0.9998083709709960  0.3330692389506640  0.3334346347172290  
  0.9998081096759820  0.3323018207837830  0.6657599884095829  
  0.9915472830758030  0.6666441347204990  0.0084592566419630  
  0.9991820712139230  0.6666428564679731  0.3343007872938700  
  0.9991788902479470  0.6666497610104970  0.6573167076218880  
  0.3342485309996730  0.0010819233558266  0.0001891397339833  
  0.3336178348077330  0.0001818675144065  0.3334406191696150  
  0.3336289735445350  0.0001915532698149  0.6663733483248110  
  0.3342456713060570  0.3323070117682860  0.0001906402039680  
  0.3336206157566080  0.3331915159178320  0.3334448386549410  
  0.3336328409361040  0.3331794500823550  0.6663678662597760  
  0.3426892414740980  0.6666467631264440  0.0008211966345115  
  0.3343359688840910  0.6666400521172450  0.3342991255879180  
  0.3350873165437280  0.6666353737613310  0.6649136408310740  
  0.6665877849461030  0.0002958970851381  0.0001887697173046  
  0.6665816585874820  0.0001650708402821  0.3334208156739820  
  0.6665694849530009  0.0001777851590958  0.6663921429190370  
  0.6665714830984230  0.3330648272043530  0.0001907687165996  
  0.6665706100447220  0.3332020969881810  0.3334303950810660  
  0.6665570195426800  0.3331894385451120  0.6663813472106170  
  0.6657056290598290  0.6666460753254460  0.0008212889875097  
  0.6664552485980200  0.6666452231478250  0.3335454604998060  
  0.6657032578570040  0.6666405055478180  0.6656661340424390  
  0.9999008169720009  0.1666586258412080  0.1669483443110310  
  0.9999083411710860  0.1666695066855650  0.4997997313322320  
  0.9999009264085640  0.1666543099889420  0.8332445694984830  
  0.9998911799702700  0.4990781460122450  0.1677190229628920  
  0.9998912521616889  0.4990729188018580  0.4990224486816430  
  0.9998896355722380  0.4914307643018460  0.8332468519098910  
  0.9999044022599650  0.8342564776634160  0.1677067879581460  
  0.9998911127541700  0.8342575571896090  0.4990156608615020  
  0.9999037904025340  0.8418376238605840  0.8332463647277850  
  0.3335507372775340  0.1666524800543530  0.1668303994012350  
  0.3335173596144470  0.1666569151471930  0.4999182549997700  
  0.3336650313676940  0.1666502540407610  0.8332460848607540  
  0.3335463480513210  0.4996991484834510  0.1668387868724750  
  0.3335408651082330  0.4997011880963170  0.4999045344209850  
  0.3344076735863770  0.4990694181296360  0.8332573503974170  
  0.3335580810208040  0.8336457211153740  0.1668354889438180  
  0.3335480249861360  0.8336429253134130  0.4999045086251640  
  0.3344104906919230  0.8342447239044620  0.8332587740855080  
  0.6665761641619879  0.1666462379143500  0.1668069833834450  
  0.6665769749371220  0.1666535690886230  0.4999174338349520  
  0.6664615986170970  0.1666451811618760  0.8332698304450690  
  0.6665673075908530  0.4996972347104600  0.1668459112262180  
  0.6665747357754060  0.4997203940818480  0.4999036722171940  
  0.6657049315245021  0.4990669666205820  0.8332495482662809  
  0.6665637251777951  0.8336547375099170  0.1668385004697300  
  0.6665652863545690  0.8336245813121370  0.4999040361449190  
  0.6657094507066500  0.8342550536278210  0.8332546069754370  
  0.1668514719576420  0.0010825851220844  0.1675444075600650  
  0.1668435991812770  0.0002933695445932  0.4999045740563590  
  0.1674637966121400  0.0019671411973618  0.8325479914232120  
  0.1668419728719210  0.3322990536196570  0.1675435581405940  
  0.1668370977913720  0.3330679519896550  0.4999026945197120  
  0.1674616231067740  0.3314243149844460  0.8325399180175170  
  0.1674513400238310  0.6666488760668370  0.1759718839063570  
  0.1674496592995000  0.6666490064970670  0.4990169525451260  
  0.1750027332736290  0.6666362669808520  0.8249987427695090  
  0.5001028272071650  0.0001794973597384  0.1669207852951830  
  0.5000862751577060  0.0001622380802218  0.4999195763844990  
  0.5001024021186070  0.0002916832171067  0.8331584284967160  
  0.5001014871032010  0.3331814221500840  0.1669133830024380  
  0.5000832640599240  0.3331846237443160  0.4999178436026740  
  0.5001010311401970  0.3330668100613040  0.8331625501049370  
  0.5009869089751150  0.6666519153962870  0.1676408024646390  
  0.5001967288640050  0.6666585218295610  0.4998039264869830  
  0.5009870107130820  0.6666493158620530  0.8325520927731990  
  0.8330901997414130  0.0001951750831921  0.1669218064527060  
  0.8330813837826130  0.0001778904868459  0.4999038891560090  
  0.8324771497447900  0.0010810032411825  0.8331695928761320  
  0.8330799545085060  0.3331686390323510  0.1669213983402710  
  0.8330863315998440  0.3331801505578300  0.4999020443056350  
  0.8324598933295210  0.3322936238744560  0.8331619871566360  
  0.8315873399782840  0.6666641227087881  0.1684163675681990  
  0.8323607336269350  0.6666523742570550  0.4990155306348430  
  0.8240331901665310  0.6666520713861390  0.8325540287530940  
  0.1667719370644750  0.1666586045549680  0.0001119105701974  
  0.1667347009935370  0.1666504022520740  0.3335475246754460  
  0.1667540696506010  0.1666492511832440  0.6663400082423080  
  0.1667546475294020  0.4914320689895820  0.0001098954118604  
  0.1667524375445880  0.4990670348730220  0.3342976778059920  
  0.1667419410574670  0.4990691199188500  0.6655932235534719  
  0.1667724636230900  0.8418352862707790  0.0001107783801402  
  0.1667521382267270  0.8342539123745990  0.3342994297539190  
  0.1667423094216570  0.8342459060879790  0.6655943783679700  
  0.5002073005894800  0.1666697147173860  0.0000909159415698  
  0.5000867791062260  0.1666560027341860  0.3334247362443040  
  0.5000858347787370  0.1666545064713180  0.6664842233757970  
  0.5009835707088470  0.4990729785459040  0.0001097665948251  
  0.5000969683513290  0.4997205336575310  0.3334261169213870  
  0.5000965644310970  0.4997011308733970  0.6664600255382350  
  0.5009907156530600  0.8342573404899269  0.0001107350482741  
  0.5000987058996100  0.8336251862549560  0.3334366176058130  
  0.5000986795993260  0.8336422601060040  0.6664537607878170  
  0.8330680635021890  0.1666532291029700  0.0001121011420580  
  0.8331934264020190  0.1666470334253350  0.3334287107748540  
  0.8331739622114750  0.1666470540117540  0.6664581939817110  
  0.8322832701657960  0.4990776639327660  0.0001098977617318  
  0.8331544470785560  0.4996977522747840  0.3334337271583080  
  0.8331620988034060  0.4996988705179890  0.6664560093295080  
  0.8323100865995560  0.8342601611450750  0.0001103325946588  
  0.8331637769704729  0.8336535694815410  0.3334412734532250  
  0.8331707721319790  0.8336472864091889  0.6664516382944899  
  0.9997998538659730  0.1666810058337230  0.0002181154152581  
  0.0001265154974845  0.1666762938580600  0.3331516351487880  
  0.0001265103357824  0.1666745520336830  0.6666236570064900  
  0.0021356092532159  0.5042679499330520  0.9978659038133340  
  0.0004069539065625  0.5001879661719070  0.3328442223579770  
  0.0004053518324127  0.5025350080190309  0.6692833657722730  
  0.0021491108959211  0.8290618269950371  0.9978708302157460  
  0.0004125946495392  0.8331358361505180  0.3328479401148530  
  0.0004110861774436  0.8307871131316920  0.6692767518292160  
  0.3333860818867860  0.1666784639094910  0.9998762946362380  
  0.3331325006452350  0.1666723224000110  0.3331602821471620  
  0.3330418540745510  0.1666710730163460  0.6669602795798680  
  0.3307201478779900  0.5025353102668720  0.9995940327488170  
  0.3327403686774840  0.5005304293384750  0.3328482907443160  
  0.3324344576779480  0.5008143452295850  0.6675657541458410  
  0.3307341428252640  0.8307848293824800  0.9995933075031830  
  0.3327481936176180  0.8327977481965050  0.3328545204027900  
  0.3324420667908900  0.8325014722789770  0.6675598872437620  
  0.6668580035659840  0.1666724292988140  0.9998766675120900  
  0.6667555650872500  0.1666683606989710  0.3332468154990450  
  0.6668452790227870  0.1666682272560460  0.6668732397623530  
  0.6671601951125010  0.5001876634680260  0.9995942705800970  
  0.6668485941960330  0.5002473960412320  0.3331519249747000  
  0.6671531306744070  0.5005303767616170  0.6672612665832390  
  0.6671623096123940  0.8331385195883390  0.9995932923884400  
  0.6668460115534670  0.8330921922895130  0.3331562084800200  
  0.6671512627696070  0.8327973838363930  0.6672577944925560  
  0.0004316190579843  0.9991582490550930  0.1658736601702840  
  0.0001198578431314  0.9994736174787630  0.5003609244078220  
  0.0004314358962390  0.0011199729494677  0.8337558242012050  
  0.0004194842295462  0.3341849485498330  0.1658730655071490  
  0.0001225641345002  0.3338804132971380  0.5003706172083890  
  0.0004192085234465  0.3322066231432220  0.8337509173996270  
  0.0021348679216473  0.6666645032573441  0.1661211749055060  
  0.9997834554114460  0.6666640633332860  0.4984084399086020  
  0.1686391638587850  0.8331720248975290  0.0019877589736339  
  0.3327611603078610  0.9993729620328220  0.3330737459579400  
  0.3328400921474070  0.9994597556203429  0.6666666965187320  
  0.3327668178791900  0.1663604817166160  0.0002552169838594  
  0.3327633792804010  0.3339727901293230  0.3330745233831460  
  0.3328420715815170  0.3338816132928670  0.6666683679327010  
  0.3325572671617750  0.5004733248193320  0.0000459549470477  
  0.3308268110935300  0.6666604535481330  0.3315567567151800  
  0.3351208265657560  0.6666542831422220  0.6666745202715419  
  0.4980349364970000  0.8331700660894510  0.0019838095673563  
  0.6668456281584700  0.9996714459541710  0.3333641317681000  
  0.6670533692906840  0.9995473812028099  0.6666699393495180  
  0.6668389602982220  0.1666587621063230  0.9999637716341639  
  0.6668340576781380  0.3336712429194510  0.3333642847783840  
  0.6670434295297980  0.3337890643064300  0.6666689780529960  
  0.6670434475330960  0.5001742043523120  0.9997550784839360  
  0.6670455081701970  0.6666647707917190  0.3339186893473710  
  0.6651033402373440  0.6666590214960100  0.6666752410352710  
  0.9165486997658970  0.4166688894508400  0.9996110442928630  
  0.1665446162852290  0.1666746787611190  0.3337192843878900  
  0.1668859677877140  0.1666731440545700  0.6666675458017930  
  0.1662521057423090  0.3337519259398720  0.9993079558612550  
  0.1662448092768830  0.5025423222992340  0.3316551060114750  
  0.1645180626219090  0.5019117553565310  0.6666700472230790  
  0.1662513524451230  0.6683868006605780  0.0016756311455950  
  0.1662503483596610  0.8307866474895250  0.3316573340904940  
  0.1645220194691750  0.8314144462033970  0.6666696884876020  
  0.3333378911117180  0.9978681862057570  0.0020619734303864  
  0.4998340409998290  0.1666765734343160  0.3332887878334820  
  0.4999231332006960  0.1666746929385780  0.6666676139890630  
  0.4998338720007570  0.3334607306786520  0.9999525093820130  
  0.4995307420809920  0.5005314967934850  0.3330796543334740  
  0.4998358878005080  0.4999010883750610  0.6666664847610591  
  0.4995331283565600  0.6669578122214260  0.0002451820128400  
  0.4995337128797390  0.8327961198793690  0.3330837284655460  
  0.4998343689595120  0.8334241859312430  0.6666700312072820  
  0.6663312782888300  0.9995887677645500  0.0002425105920523  
  0.8336409073457460  0.1666706123280900  0.3333754673035120  
  0.8332093316856590  0.1666702487585500  0.6666695972553640  
  0.8339345219544260  0.3337498597555920  0.9996507962156760  
  0.8342309483475669  0.5008289652736410  0.3333849443478200  
  0.8356566728546680  0.5022528228956130  0.6666706318055450  
  0.8342343375439750  0.6666746591757690  0.9999436187952710  
  0.8342348164869190  0.8325141245843500  0.3333847860271320  
  0.8356632004016760  0.8310773973361090  0.6666715610154840  
  0.0000721178698981  0.9157878761638329  0.9166730987565470  
  0.1665516707099360  0.0014221377862214  0.1666645867110080  
  0.1662516902297850  0.9991594268968880  0.5000377848848599  
  0.1662520740410190  0.1667741384977360  0.8332897186982819  
  0.1665442117599840  0.3319078165604030  0.1666653943627030  
  0.1662474072928220  0.3341813665796850  0.5000376014360129  
  0.1645190845810940  0.5003674565148590  0.8315750790787040  
  0.1668758878894540  0.6666563263430660  0.3349009394177780  
  0.1645109957493600  0.6666535651434770  0.6672325525295260  
  0.4996461020621940  0.9994736818261460  0.9998816893119480  
  0.4998479473421750  0.9997623038187911  0.3331606475266470  
  0.4998475853434880  0.9996721256379220  0.6669608315018110  
  0.4996352062451520  0.3338805810588850  0.9998765365069811  
  0.4998437414883060  0.3335816724289130  0.3331666660863850  
  0.4998430188481960  0.3336709706061500  0.6669523349466360  
  0.5015975547084039  0.6666639983271740  0.0002178936679229  
  0.4996301151056240  0.6666649861875130  0.3329565016293690  
  0.4996302774237900  0.6666618699762740  0.6668243093519450  
  0.8341492130166021  0.9991580270772000  0.9995873981461190  
  0.8336282112146380  0.9996708927757540  0.3331624863431770  
  0.8339217169333610  0.9993707397878000  0.6672451642298540  
  0.8341326232629530  0.3341814574337720  0.9995840959076220  
  0.8336244688361770  0.3336721745913350  0.3331691031191180  
  0.8339148610393891  0.3339703599306460  0.6672378854384530  
  0.8338860227059680  0.6666673328212060  0.9978709218587060  
  0.8334934652816560  0.6666642746372130  0.3329592315793160  
  0.8358545236448260  0.6666617768526140  0.6691734963970720  
