IS-1                                    
   1.00000000000000     
    20.0000000000000000    0.0000000000000000    0.0000000000000000
     0.0000000000000000   20.0000000000000000    0.0000000000000000
     0.0000000000000000    0.0000000000000000   20.0000000000000000
   Ni   S 
    55     1
Direct
  0.3504792741733356  0.5957228472076072  0.4104705919328954
  0.4518342127164305  0.6634320356704403  0.3768503619273753
  0.4123398289792997  0.6622475353935739  0.4968754064993817
  0.5133192996917453  0.7230612864467711  0.4642058876735876
  0.5148684916034093  0.6084821636503536  0.4640430005888435
  0.5772964731699449  0.6650075850463827  0.3775188232544284
  0.6162941258523661  0.6653181861675129  0.4968490715172176
  0.3161305024733955  0.5932350344041306  0.5268016755152479
  0.3466926719573418  0.4905573301033034  0.5857223392923112
  0.4148017490905729  0.5416778256162220  0.4971678428072936
  0.4135940073236373  0.5975843151923440  0.6033746783924534
  0.5141294460607194  0.6633979584246239  0.5710694133675089
  0.5151488232531168  0.5428476350522844  0.5700500551977733
  0.6157378614608275  0.5448661589110518  0.4968969554051758
  0.6166217188223306  0.5987070352127033  0.6043215519967177
  0.3927014379842788  0.5936304876139610  0.2954652539034976
  0.3515471709082391  0.4887998696841359  0.3437877201398302
  0.4535095455902630  0.4904855422860140  0.2705188365838059
  0.4536410549569603  0.5430109578144985  0.3788368785145523
  0.5151482131157753  0.5981377841493312  0.2908301002961206
  0.5170242188659671  0.4382757099831240  0.3586663230702722
  0.5793732835678779  0.4922011312318070  0.2704677087618236
  0.5775796739027220  0.5444844660692191  0.3789767636104633
  0.3127104202593347  0.4879843157612764  0.4642230484598678
  0.3541617586331491  0.3809213364243899  0.5167793016042362
  0.4166307494906634  0.4369165367369985  0.4307022976847625
  0.4546239613271971  0.4376206753714255  0.5495197031745125
  0.5159842083927083  0.4907832793333292  0.4643548169749208
  0.5170264669879246  0.3728306153827518  0.4646070240074875
  0.6169356129188339  0.4393456879915213  0.4313228827922890
  0.5792675267867945  0.4387203196096621  0.5489667963385625
  0.6797371564602723  0.6000388135281206  0.4108984549601528
  0.7129701085393452  0.5970506788112987  0.5288785926205234
  0.6812280762421163  0.4922784235766002  0.5836371701870304
  0.6375548842862689  0.5965802383964441  0.2958261026525195
  0.6809956085603176  0.4933015970545133  0.3444074162713889
  0.7195471077191984  0.4932869327669899  0.4642232420428417
  0.6824583467052673  0.3854484237795089  0.5172572679524039
  0.4525191458667163  0.4918809050652794  0.6626249989211813
  0.5163420079533566  0.5953630235224663  0.6726357869143255
  0.5786992853408872  0.4909749817895891  0.6576338812892214
  0.3945367424862626  0.3832154740248840  0.6333193317575849
  0.4555132438983776  0.3156457806797638  0.5502429671374821
  0.5175420734314045  0.3825937528665181  0.6356492716208250
  0.5811996328790177  0.3179560912924268  0.5499532050834202
  0.6398628127918286  0.3879342729207334  0.6321792091289511
  0.4157830491019245  0.3826317251282022  0.3231800315881650
  0.5174824803016372  0.3873763385461966  0.2553617934004720
  0.6197703867908890  0.3862742131130350  0.3232359327322989
  0.3195556348967134  0.3844787473328579  0.3991066362192773
  0.4168422837603854  0.3162492461224271  0.4305846978387968
  0.5186740420620692  0.3183853179444016  0.3563963559625887
  0.6201400340999124  0.3193992270646385  0.4300643237007840
  0.7157555386182163  0.3894337184679310  0.3996023740653730
  0.5201554014194697  0.2579291774200931  0.4620087970134690
  0.3519812014709834  0.4636692268423377  0.6902889816537108
 
  0.00000000E+00  0.00000000E+00  0.00000000E+00
  0.00000000E+00  0.00000000E+00  0.00000000E+00
  0.00000000E+00  0.00000000E+00  0.00000000E+00
  0.00000000E+00  0.00000000E+00  0.00000000E+00
  0.00000000E+00  0.00000000E+00  0.00000000E+00
  0.00000000E+00  0.00000000E+00  0.00000000E+00
  0.00000000E+00  0.00000000E+00  0.00000000E+00
  0.00000000E+00  0.00000000E+00  0.00000000E+00
  0.00000000E+00  0.00000000E+00  0.00000000E+00
  0.00000000E+00  0.00000000E+00  0.00000000E+00
  0.00000000E+00  0.00000000E+00  0.00000000E+00
  0.00000000E+00  0.00000000E+00  0.00000000E+00
  0.00000000E+00  0.00000000E+00  0.00000000E+00
  0.00000000E+00  0.00000000E+00  0.00000000E+00
  0.00000000E+00  0.00000000E+00  0.00000000E+00
  0.00000000E+00  0.00000000E+00  0.00000000E+00
  0.00000000E+00  0.00000000E+00  0.00000000E+00
  0.00000000E+00  0.00000000E+00  0.00000000E+00
  0.00000000E+00  0.00000000E+00  0.00000000E+00
  0.00000000E+00  0.00000000E+00  0.00000000E+00
  0.00000000E+00  0.00000000E+00  0.00000000E+00
  0.00000000E+00  0.00000000E+00  0.00000000E+00
  0.00000000E+00  0.00000000E+00  0.00000000E+00
  0.00000000E+00  0.00000000E+00  0.00000000E+00
  0.00000000E+00  0.00000000E+00  0.00000000E+00
  0.00000000E+00  0.00000000E+00  0.00000000E+00
  0.00000000E+00  0.00000000E+00  0.00000000E+00
  0.00000000E+00  0.00000000E+00  0.00000000E+00
  0.00000000E+00  0.00000000E+00  0.00000000E+00
  0.00000000E+00  0.00000000E+00  0.00000000E+00
  0.00000000E+00  0.00000000E+00  0.00000000E+00
  0.00000000E+00  0.00000000E+00  0.00000000E+00
  0.00000000E+00  0.00000000E+00  0.00000000E+00
  0.00000000E+00  0.00000000E+00  0.00000000E+00
  0.00000000E+00  0.00000000E+00  0.00000000E+00
  0.00000000E+00  0.00000000E+00  0.00000000E+00
  0.00000000E+00  0.00000000E+00  0.00000000E+00
  0.00000000E+00  0.00000000E+00  0.00000000E+00
  0.00000000E+00  0.00000000E+00  0.00000000E+00
  0.00000000E+00  0.00000000E+00  0.00000000E+00
  0.00000000E+00  0.00000000E+00  0.00000000E+00
  0.00000000E+00  0.00000000E+00  0.00000000E+00
  0.00000000E+00  0.00000000E+00  0.00000000E+00
  0.00000000E+00  0.00000000E+00  0.00000000E+00
  0.00000000E+00  0.00000000E+00  0.00000000E+00
  0.00000000E+00  0.00000000E+00  0.00000000E+00
  0.00000000E+00  0.00000000E+00  0.00000000E+00
  0.00000000E+00  0.00000000E+00  0.00000000E+00
  0.00000000E+00  0.00000000E+00  0.00000000E+00
  0.00000000E+00  0.00000000E+00  0.00000000E+00
  0.00000000E+00  0.00000000E+00  0.00000000E+00
  0.00000000E+00  0.00000000E+00  0.00000000E+00
  0.00000000E+00  0.00000000E+00  0.00000000E+00
  0.00000000E+00  0.00000000E+00  0.00000000E+00
  0.00000000E+00  0.00000000E+00  0.00000000E+00
  0.00000000E+00  0.00000000E+00  0.00000000E+00
