IS-1
1.0
       20.0000000000         0.0000000000         0.0000000000
        0.0000000000        20.0000000000         0.0000000000
        0.0000000000         0.0000000000        20.0000000000
   Ni    S
   55    1
Direct
     0.349999994         0.596099973         0.410230011
     0.451119989         0.662980020         0.377389997
     0.411440015         0.663339972         0.495929986
     0.512899995         0.723569989         0.463970006
     0.514559984         0.608579993         0.464549989
     0.576969981         0.665120006         0.378039986
     0.615310013         0.665289998         0.497399986
     0.316219985         0.593280017         0.527599990
     0.351650000         0.488440007         0.582409978
     0.414819986         0.543099999         0.496749997
     0.412259996         0.597159982         0.604330003
     0.513000011         0.664430022         0.570789993
     0.513930023         0.543269992         0.570439994
     0.615140021         0.544309974         0.498030007
     0.615040004         0.599389970         0.604470015
     0.392699987         0.593190014         0.295610011
     0.351740003         0.488959998         0.344929993
     0.453740001         0.490700006         0.270229995
     0.453610003         0.542410016         0.379110008
     0.515200019         0.597980022         0.291260004
     0.516589999         0.438580006         0.358940005
     0.579140007         0.492330015         0.270799994
     0.577560008         0.544480026         0.379599988
     0.312290013         0.488389999         0.464219987
     0.351870000         0.381309986         0.517390013
     0.416240007         0.436600000         0.433070004
     0.455069989         0.437310010         0.550100029
     0.515879989         0.490599990         0.464969993
     0.518040001         0.372420013         0.463559985
     0.616919994         0.439460009         0.431939989
     0.577899992         0.437649995         0.550140023
     0.679069996         0.599669993         0.412039995
     0.712080002         0.596849978         0.529770017
     0.680339992         0.491679996         0.583739996
     0.637700021         0.596759975         0.296790004
     0.681070030         0.493209988         0.344720006
     0.719510019         0.493310004         0.463999987
     0.681970000         0.385210007         0.516929984
     0.452659994         0.490940005         0.663230002
     0.513530016         0.597050011         0.672100008
     0.579270005         0.492000014         0.656920016
     0.393150002         0.383830011         0.632770002
     0.455159992         0.317449987         0.549390018
     0.519089997         0.381500006         0.642099977
     0.581570029         0.317620009         0.550270021
     0.641210020         0.386489987         0.631420016
     0.415859997         0.382840008         0.324449986
     0.517199993         0.387450010         0.255829990
     0.618950009         0.385589987         0.323659986
     0.319489986         0.384750009         0.398710012
     0.416359991         0.316419989         0.430909991
     0.518400013         0.317860007         0.356319994
     0.620119989         0.318619996         0.429380000
     0.715009987         0.389279991         0.399159998
     0.519529998         0.257649988         0.462799996
     0.366849989         0.464910001         0.673829973
