Li   Nb   Mo   O                        
   1.00000000000000     
    22.7851428986000002    0.0000000000000000    0.0000000000000000
     0.0000000000000000    3.8768503666000003    0.0000000000000000
    -9.9730516296000005    0.0000024128000000   15.1282481845000003
   Li   Nb   Mo   O 
     1    24     2    66
Direct
  0.3403323936798411  0.6747828759880303  0.6146937215963205
  0.3673302310660694  0.0058381707299979  0.0460988117641665
  0.6337759175725379  0.0123582919341836  0.9541940118675927
  0.8656341681927717  0.5082711821262839  0.0451968191302978
  0.1310272408464709  0.5091228731059152  0.9554853112294749
  0.2489434790927310  0.0039344526266562  0.1370305759650285
  0.7521798135372574  0.0035698625667367  0.8618488603021085
  0.7478892803475783  0.5046796095826998  0.1378483770483327
  0.2492309017855080  0.5020399090896120  0.8651615255033446
  0.1291519156262143  0.9983099398681383  0.2294347306869438
  0.8688583384106457  0.9990943572214287  0.7674650606842153
  0.6315735796979030  0.4996254955092382  0.2326547377762107
  0.3691024900636237  0.4750817590899704  0.7756092446749067
  0.4194566818555466  0.9700808692071071  0.3789746455090442
  0.5840504939502188  0.9682748168665597  0.6175502156445174
  0.9174130983613542  0.4664045931928303  0.3819378665157924
  0.0814454669350813  0.4636467206420226  0.6208669658881775
  0.2962962189441898  0.0334549177605635  0.4647525816919428
  0.7026036129774964  0.0041437896954909  0.5263365994130225
  0.7985295232727242  0.5037526267651163  0.4730343271041828
  0.1975135386484951  0.4925977059372134  0.5251779540703041
  0.4676011653809209  0.0205830458586702  0.7134661675423397
  0.5373425056453379  0.0035059352975498  0.2869059918460199
  0.9631361544241929  0.5016617687712044  0.7127876371932058
  0.0335336415575840  0.5021624649986963  0.2850660043288971
  0.9991567413167912  0.2517328526217978  1.0004409672473540
  0.5004727217706849  0.7506397263537233  0.0002449270763385
 -0.0009396433037229  0.4887654905863836  0.5010695771163685
  0.5000113935034770  0.9924347064391855  0.4997258937296151
  0.1481120314937020  0.0039949938191894  0.9918009623439711
  0.8502319710854724  0.0046780479764923  0.0089996830797465
  0.6488773465439143  0.5067316819653239  0.9899733919581678
  0.3507417012716150  0.5014472013845367  0.0101485707321046
  0.3031610827148745  0.0010316410017290  0.0816241154056127
  0.6956839709333292  0.0045374327935147  0.9169277865710596
  0.8029605127201801  0.5047847729913203  0.0813202612901412
  0.1955469775688047  0.4984423052990857  0.9201810635884278
  0.0336707385032960  1.0008631579616667  0.0996910639075556
  0.9657531134270657  0.0006952517763087  0.9025613904255656
  0.5343398764458736  0.4999466582615713  0.0981511926912352
  0.4665351811031931  0.4963595064946561  0.9011768572241924
  0.4499323437149012  0.0034215852144262  0.1557524534173311
  0.5492485447440910  0.0154501043322081  0.8435566072709331
  0.9493783508382104  0.5027668029646993  0.1558846641951621
  0.0494734630873632  0.5055126547408469  0.8451565820054397
  0.1801734781970254  0.0006731905474538  0.1785479749485793
  0.8204236755933406  0.0038257125993336  0.8233219846577214
  0.6798095413662798  0.5046929355001908  0.1765921831537723
  0.3211166853045160  0.4851085752831210  0.8296010531969954
  0.0488655906298507  0.0013301151027997  0.2706937438570142
  0.9501419220710755  0.0020339543496975  0.7305321616958035
  0.5502400744572692  0.5026445205468292  0.2693388864673389
  0.4457989710687296  0.5170121033311661  0.7227565225657061
  0.3257564133615680  1.0012849457029911  0.2492966751956068
  0.6754175069476512  0.9997477885557988  0.7496214836569424
  0.8253021553163027  0.4992337946274136  0.2494920798706944
  0.1744924434792126  0.4988216406465095  0.7511247081994098
  0.4769496177317362  1.0027327826902972  0.3259635722585424
  0.5268179633213246  1.0073646036397526  0.6749656608572799
  0.9769046756602682  0.4999365718754871  0.3279943368180457
  0.0239505872729275  0.4969443660961936  0.6747687469491815
  0.2064082370826732  0.0157448438669559  0.3498664821585501
  0.7928430259393817  0.0022020763806145  0.6512200418751571
  0.7075954076001000  0.5024105181815403  0.3487036661117725
  0.2908993326300399  0.4891680424211546  0.6569615916736025
  0.3514694118489187  0.0167536063398067  0.4205410632069684
  0.6479398165288655  1.0012851490755947  0.5736144813672800
  0.8523473206076224  0.4997446671334914  0.4250257938095207
  0.1443375355893765  0.4937981086888882  0.5726768256330823
  0.2246340828055413 -0.0006137365178239  0.5245825246840234
  0.7788672039804811  0.0032688370954632  0.4811362681468263
  0.7220327606283914  0.5033310874665049  0.5184227738854625
  0.2834193592928832  0.5260207539622149  0.4875486213479960
  0.3805212475183113  0.0328922548982823  0.5934748627157668
  0.6222972272233172  0.0028878535804007  0.4036174505852319
  0.8784142392309116  0.5030815443795467  0.5960217471706245
  0.1225765463496268  0.4976172203672897  0.4041306880269609
  0.0903924955301133  0.9897302436863843  0.6320538702411320
  0.9101461079979303  0.9922885798745148  0.3683769125171523
  0.5907855122451787  0.4945698078077600  0.6303718337881515
  0.4105618126585464  0.4968273962564831  0.3681942543845837
  0.3918340541333369  0.9900367087317202  0.7668329807062919
  0.6059734503348404  0.0017693133753373  0.2313812093033905
  0.8942440790896420  0.5013531299211718  0.7685437192584988
  0.1062912385594083  0.5026707041571867  0.2324318352772093
  0.2744390611827150 -0.0009308190641955  0.8979622426185699
  0.7239469741080241  0.0055233931861143  0.1023383395345960
  0.7756158722659130  0.5041465148710010  0.8969545183532761
  0.2239211169207089  0.5032063896689807  0.1041825606293358
  0.4288140674541884  0.0002251929601824  0.9869161382938054
  0.5713164519143368  0.0028634340903143  0.0130196529468375
  0.9280888317918261  0.5043365379701742  0.9869514891356079
  0.0707231636718182  0.5047804752786286  0.0143943735876924
 
  0.00000000E+00  0.00000000E+00  0.00000000E+00
  0.00000000E+00  0.00000000E+00  0.00000000E+00
  0.00000000E+00  0.00000000E+00  0.00000000E+00
  0.00000000E+00  0.00000000E+00  0.00000000E+00
  0.00000000E+00  0.00000000E+00  0.00000000E+00
  0.00000000E+00  0.00000000E+00  0.00000000E+00
  0.00000000E+00  0.00000000E+00  0.00000000E+00
  0.00000000E+00  0.00000000E+00  0.00000000E+00
  0.00000000E+00  0.00000000E+00  0.00000000E+00
  0.00000000E+00  0.00000000E+00  0.00000000E+00
  0.00000000E+00  0.00000000E+00  0.00000000E+00
  0.00000000E+00  0.00000000E+00  0.00000000E+00
  0.00000000E+00  0.00000000E+00  0.00000000E+00
  0.00000000E+00  0.00000000E+00  0.00000000E+00
  0.00000000E+00  0.00000000E+00  0.00000000E+00
  0.00000000E+00  0.00000000E+00  0.00000000E+00
  0.00000000E+00  0.00000000E+00  0.00000000E+00
  0.00000000E+00  0.00000000E+00  0.00000000E+00
  0.00000000E+00  0.00000000E+00  0.00000000E+00
  0.00000000E+00  0.00000000E+00  0.00000000E+00
  0.00000000E+00  0.00000000E+00  0.00000000E+00
  0.00000000E+00  0.00000000E+00  0.00000000E+00
  0.00000000E+00  0.00000000E+00  0.00000000E+00
  0.00000000E+00  0.00000000E+00  0.00000000E+00
  0.00000000E+00  0.00000000E+00  0.00000000E+00
  0.00000000E+00  0.00000000E+00  0.00000000E+00
  0.00000000E+00  0.00000000E+00  0.00000000E+00
  0.00000000E+00  0.00000000E+00  0.00000000E+00
  0.00000000E+00  0.00000000E+00  0.00000000E+00
  0.00000000E+00  0.00000000E+00  0.00000000E+00
  0.00000000E+00  0.00000000E+00  0.00000000E+00
  0.00000000E+00  0.00000000E+00  0.00000000E+00
  0.00000000E+00  0.00000000E+00  0.00000000E+00
  0.00000000E+00  0.00000000E+00  0.00000000E+00
  0.00000000E+00  0.00000000E+00  0.00000000E+00
  0.00000000E+00  0.00000000E+00  0.00000000E+00
  0.00000000E+00  0.00000000E+00  0.00000000E+00
  0.00000000E+00  0.00000000E+00  0.00000000E+00
  0.00000000E+00  0.00000000E+00  0.00000000E+00
  0.00000000E+00  0.00000000E+00  0.00000000E+00
  0.00000000E+00  0.00000000E+00  0.00000000E+00
  0.00000000E+00  0.00000000E+00  0.00000000E+00
  0.00000000E+00  0.00000000E+00  0.00000000E+00
  0.00000000E+00  0.00000000E+00  0.00000000E+00
  0.00000000E+00  0.00000000E+00  0.00000000E+00
  0.00000000E+00  0.00000000E+00  0.00000000E+00
  0.00000000E+00  0.00000000E+00  0.00000000E+00
  0.00000000E+00  0.00000000E+00  0.00000000E+00
  0.00000000E+00  0.00000000E+00  0.00000000E+00
  0.00000000E+00  0.00000000E+00  0.00000000E+00
  0.00000000E+00  0.00000000E+00  0.00000000E+00
  0.00000000E+00  0.00000000E+00  0.00000000E+00
  0.00000000E+00  0.00000000E+00  0.00000000E+00
  0.00000000E+00  0.00000000E+00  0.00000000E+00
  0.00000000E+00  0.00000000E+00  0.00000000E+00
  0.00000000E+00  0.00000000E+00  0.00000000E+00
  0.00000000E+00  0.00000000E+00  0.00000000E+00
  0.00000000E+00  0.00000000E+00  0.00000000E+00
  0.00000000E+00  0.00000000E+00  0.00000000E+00
  0.00000000E+00  0.00000000E+00  0.00000000E+00
  0.00000000E+00  0.00000000E+00  0.00000000E+00
  0.00000000E+00  0.00000000E+00  0.00000000E+00
  0.00000000E+00  0.00000000E+00  0.00000000E+00
  0.00000000E+00  0.00000000E+00  0.00000000E+00
  0.00000000E+00  0.00000000E+00  0.00000000E+00
  0.00000000E+00  0.00000000E+00  0.00000000E+00
  0.00000000E+00  0.00000000E+00  0.00000000E+00
  0.00000000E+00  0.00000000E+00  0.00000000E+00
  0.00000000E+00  0.00000000E+00  0.00000000E+00
  0.00000000E+00  0.00000000E+00  0.00000000E+00
  0.00000000E+00  0.00000000E+00  0.00000000E+00
  0.00000000E+00  0.00000000E+00  0.00000000E+00
  0.00000000E+00  0.00000000E+00  0.00000000E+00
  0.00000000E+00  0.00000000E+00  0.00000000E+00
  0.00000000E+00  0.00000000E+00  0.00000000E+00
  0.00000000E+00  0.00000000E+00  0.00000000E+00
  0.00000000E+00  0.00000000E+00  0.00000000E+00
  0.00000000E+00  0.00000000E+00  0.00000000E+00
  0.00000000E+00  0.00000000E+00  0.00000000E+00
  0.00000000E+00  0.00000000E+00  0.00000000E+00
  0.00000000E+00  0.00000000E+00  0.00000000E+00
  0.00000000E+00  0.00000000E+00  0.00000000E+00
  0.00000000E+00  0.00000000E+00  0.00000000E+00
  0.00000000E+00  0.00000000E+00  0.00000000E+00
  0.00000000E+00  0.00000000E+00  0.00000000E+00
  0.00000000E+00  0.00000000E+00  0.00000000E+00
  0.00000000E+00  0.00000000E+00  0.00000000E+00
  0.00000000E+00  0.00000000E+00  0.00000000E+00
  0.00000000E+00  0.00000000E+00  0.00000000E+00
  0.00000000E+00  0.00000000E+00  0.00000000E+00
  0.00000000E+00  0.00000000E+00  0.00000000E+00
  0.00000000E+00  0.00000000E+00  0.00000000E+00
  0.00000000E+00  0.00000000E+00  0.00000000E+00
