Li1 Nb24 Mo2 O66                        
   1.00000000000000     
    22.7851428986000002    0.0000000000000000    0.0000000000000000
     0.0000000000000000    3.8768503665999998    0.0000000000000000
    -9.9730516296000005    0.0000024128000000   15.1282481845000003
   Li   Nb   Mo   O 
     1    24     2    66
Direct
  0.3105130072717486  1.0002985433287521  0.6399583854019861
  0.3669692581554521  0.0073621504642562  0.0464383562552077
  0.6336150889347743  0.0075076823651182  0.9536819716171843
  0.8640445686513220  0.5076821848086192  0.0431905124740333
  0.1314734370013239  0.5096064320098058  0.9553905240478946
  0.2484795467154187  0.0036886860712429  0.1377591256243169
  0.7516732712595972  0.0032875954589864  0.8609914675328272
  0.7473054330565939  0.5030640171234094  0.1377383310471073
  0.2497972800715338  0.5032959832870222  0.8649921698501943
  0.1305087088256946  0.9977834608144022  0.2317734535196119
  0.8691228658702176  0.9984764752762354  0.7673996082494194
  0.6316389879734486  0.4983235300187969  0.2335381247123005
  0.3721107465967981  0.4963296291003961  0.7766912594762082
  0.4188533308803612  0.9665433776345966  0.3793177042833460
  0.5836973837872809  0.9672875464116186  0.6170772808086312
  0.9171708818152575  0.4674660303886415  0.3814998852645836
  0.0824048764145770  0.4679001654358488  0.6197542789261349
  0.2981722920014725  0.0032763389213508  0.4695862132367351
  0.7025350818350757  0.0034667319375425  0.5264536688531892
  0.7988901670926316  0.5037021206659476  0.4736209231281534
  0.1966009613430678  0.5025447791416638  0.5208109716740148
  0.4662331129299370  0.0007649714504255  0.7126129066817952
  0.5367589688444355  0.0016370249440474  0.2871971202433529
  0.9640805415289661  0.5016485492007539  0.7126212603221842
  0.0310594947915421  0.5015562837508850  0.2813097689302846
 -0.0005041363338946  0.2515783411668673  0.0005124138991185
  0.5011247385707605  0.7528711743468185  0.0016871778848129
 -0.0000018081938521  0.4907235387940242  0.5002295760158609
  0.5010622548384520  0.9914751155977896  0.4986217327041395
  0.1488909849850167  0.0044750419803237  0.9915658214775058
  0.8494167279304309  0.0038189321387910  0.0077134862502981
  0.6488955533541161  0.5043620507746253  0.9902463269796912
  0.3509745364035461  0.5040182928602164  0.0098902921827591
  0.3034558510748280  0.0032629211359861  0.0823812153565063
  0.6960625803685052  0.0038342213128848  0.9171927505109265
  0.8025518385068863  0.5032167965872951  0.0808129110234754
  0.1961788593493705  0.5019215928354314  0.9197801601882192
  0.0341619168363882  0.9995418271421463  0.0991449230873946
  0.9654863345691249  0.9995189927669708  0.9025163889140200
  0.5344263484877860  0.5016323797573164  0.0992849182752693
  0.4670464620386985  0.5006952924176850  0.9017182072088290
  0.4498583300479307  0.0036300230579904  0.1559367440985495
  0.5497030503207740  0.0028591171082572  0.8436314458294790
  0.9483676636696302  0.5031885695933477  0.1543940703348431
  0.0502041798104599  0.5052232255396123  0.8447561655380185
  0.1800580096829164  0.0022748424251335  0.1783031795703974
  0.8196522866989546  0.0030017601500580  0.8222389039874509
  0.6797314797242295  0.5028611245504969  0.1771739585939900
  0.3210863496297786  0.5006467044439514  0.8267382483632149
  0.0483366765162972  0.0013707766374538  0.2699225641528426
  0.9506417295131765  0.0018215042510962  0.7302652661852689
  0.5500480035273904  0.5015568130158166  0.2700304036861296
  0.4516438861304706  0.5007361460179635  0.7304147667143899
  0.3253037205720121 -0.0001412654690237  0.2503083710673198
  0.6739775477825980 -0.0003139609142251  0.7494004892457131
  0.8251261736819484  0.4992326935435380  0.2492184448494209
  0.1750909655693961  0.4996933639066624  0.7510210310234346
  0.4761042243817932  0.9983087065142919  0.3258791946728726
  0.5216899415704654  0.9994436994822408  0.6690770679848472
  0.9757947066741320  0.4996357579165944  0.3262435115681390
  0.0242659688372780  0.4988086744515866  0.6737793820045946
  0.2069742152181113  0.0016229018398057  0.3497912118825551
  0.7930730981118101  0.0018778133648911  0.6511773817259754
  0.7077492214730373  0.5020135858925238  0.3493026518560075
  0.2954814867480676  0.5012280069818044  0.6547770554595567
  0.3549948775247857  0.0008629950758142  0.4279065278428752
  0.6483057088879512 -0.0007899641223813  0.5745726849179745
  0.8526070037702994  0.5002625180158176  0.4253259036382200
  0.1470618149675667  0.4997684633089005  0.5740903859963050
  0.2233772364223406  0.0022162360100775  0.5244358460861472
  0.7788023852850843  0.0030381635003705  0.4813332191757323
  0.7219821004654381  0.5029021862767972  0.5185933601548042
  0.2781135459219425  0.5024718860076065  0.4804234015644834
  0.3741116044791938  0.0017229229761245  0.5985037856897760
  0.6217818246214555  0.0024876548584208  0.4041504545333692
  0.8786786226347045  0.5027298614764879  0.5960579979287404
  0.1210214873633032  0.5020636177241342  0.4030852481153689
  0.0911627983948392  0.9930943297978697  0.6314244525951254
  0.9099177560322218  0.9930876225634141  0.3684360874812272
  0.5896863657555842  0.4929518757603756  0.6309918420658753
  0.4091208400826454  0.4925649800132109  0.3691223026453708
  0.3906530372231606 -0.0004396938717300  0.7668723129384676
  0.6059726122042727  0.0009664567900428  0.2322029071543993
  0.8945191490417789  0.5009302105277610  0.7683425107682866
  0.1056588508081185  0.5005752980908197  0.2323270608624213
  0.2755224529368752  0.0030264006169643  0.8975346637624598
  0.7238995141804083  0.0035343552886742  0.1025743637028425
  0.7752145050389186  0.5035998664966337  0.8962246161239458
  0.2242489931611227  0.5037874926685727  0.1043284638416554
  0.4297096841706658  0.0044674034960981  0.9877330701133928
  0.5716433862336321  0.0055237980427553  0.0140803403570842
  0.9281989071378608  0.5020795697792426  0.9872777540714069
  0.0711315949264947  0.5034861639037196  0.0135631793576756
 
  0.00000000E+00  0.00000000E+00  0.00000000E+00
  0.00000000E+00  0.00000000E+00  0.00000000E+00
  0.00000000E+00  0.00000000E+00  0.00000000E+00
  0.00000000E+00  0.00000000E+00  0.00000000E+00
  0.00000000E+00  0.00000000E+00  0.00000000E+00
  0.00000000E+00  0.00000000E+00  0.00000000E+00
  0.00000000E+00  0.00000000E+00  0.00000000E+00
  0.00000000E+00  0.00000000E+00  0.00000000E+00
  0.00000000E+00  0.00000000E+00  0.00000000E+00
  0.00000000E+00  0.00000000E+00  0.00000000E+00
  0.00000000E+00  0.00000000E+00  0.00000000E+00
  0.00000000E+00  0.00000000E+00  0.00000000E+00
  0.00000000E+00  0.00000000E+00  0.00000000E+00
  0.00000000E+00  0.00000000E+00  0.00000000E+00
  0.00000000E+00  0.00000000E+00  0.00000000E+00
  0.00000000E+00  0.00000000E+00  0.00000000E+00
  0.00000000E+00  0.00000000E+00  0.00000000E+00
  0.00000000E+00  0.00000000E+00  0.00000000E+00
  0.00000000E+00  0.00000000E+00  0.00000000E+00
  0.00000000E+00  0.00000000E+00  0.00000000E+00
  0.00000000E+00  0.00000000E+00  0.00000000E+00
  0.00000000E+00  0.00000000E+00  0.00000000E+00
  0.00000000E+00  0.00000000E+00  0.00000000E+00
  0.00000000E+00  0.00000000E+00  0.00000000E+00
  0.00000000E+00  0.00000000E+00  0.00000000E+00
  0.00000000E+00  0.00000000E+00  0.00000000E+00
  0.00000000E+00  0.00000000E+00  0.00000000E+00
  0.00000000E+00  0.00000000E+00  0.00000000E+00
  0.00000000E+00  0.00000000E+00  0.00000000E+00
  0.00000000E+00  0.00000000E+00  0.00000000E+00
  0.00000000E+00  0.00000000E+00  0.00000000E+00
  0.00000000E+00  0.00000000E+00  0.00000000E+00
  0.00000000E+00  0.00000000E+00  0.00000000E+00
  0.00000000E+00  0.00000000E+00  0.00000000E+00
  0.00000000E+00  0.00000000E+00  0.00000000E+00
  0.00000000E+00  0.00000000E+00  0.00000000E+00
  0.00000000E+00  0.00000000E+00  0.00000000E+00
  0.00000000E+00  0.00000000E+00  0.00000000E+00
  0.00000000E+00  0.00000000E+00  0.00000000E+00
  0.00000000E+00  0.00000000E+00  0.00000000E+00
  0.00000000E+00  0.00000000E+00  0.00000000E+00
  0.00000000E+00  0.00000000E+00  0.00000000E+00
  0.00000000E+00  0.00000000E+00  0.00000000E+00
  0.00000000E+00  0.00000000E+00  0.00000000E+00
  0.00000000E+00  0.00000000E+00  0.00000000E+00
  0.00000000E+00  0.00000000E+00  0.00000000E+00
  0.00000000E+00  0.00000000E+00  0.00000000E+00
  0.00000000E+00  0.00000000E+00  0.00000000E+00
  0.00000000E+00  0.00000000E+00  0.00000000E+00
  0.00000000E+00  0.00000000E+00  0.00000000E+00
  0.00000000E+00  0.00000000E+00  0.00000000E+00
  0.00000000E+00  0.00000000E+00  0.00000000E+00
  0.00000000E+00  0.00000000E+00  0.00000000E+00
  0.00000000E+00  0.00000000E+00  0.00000000E+00
  0.00000000E+00  0.00000000E+00  0.00000000E+00
  0.00000000E+00  0.00000000E+00  0.00000000E+00
  0.00000000E+00  0.00000000E+00  0.00000000E+00
  0.00000000E+00  0.00000000E+00  0.00000000E+00
  0.00000000E+00  0.00000000E+00  0.00000000E+00
  0.00000000E+00  0.00000000E+00  0.00000000E+00
  0.00000000E+00  0.00000000E+00  0.00000000E+00
  0.00000000E+00  0.00000000E+00  0.00000000E+00
  0.00000000E+00  0.00000000E+00  0.00000000E+00
  0.00000000E+00  0.00000000E+00  0.00000000E+00
  0.00000000E+00  0.00000000E+00  0.00000000E+00
  0.00000000E+00  0.00000000E+00  0.00000000E+00
  0.00000000E+00  0.00000000E+00  0.00000000E+00
  0.00000000E+00  0.00000000E+00  0.00000000E+00
  0.00000000E+00  0.00000000E+00  0.00000000E+00
  0.00000000E+00  0.00000000E+00  0.00000000E+00
  0.00000000E+00  0.00000000E+00  0.00000000E+00
  0.00000000E+00  0.00000000E+00  0.00000000E+00
  0.00000000E+00  0.00000000E+00  0.00000000E+00
  0.00000000E+00  0.00000000E+00  0.00000000E+00
  0.00000000E+00  0.00000000E+00  0.00000000E+00
  0.00000000E+00  0.00000000E+00  0.00000000E+00
  0.00000000E+00  0.00000000E+00  0.00000000E+00
  0.00000000E+00  0.00000000E+00  0.00000000E+00
  0.00000000E+00  0.00000000E+00  0.00000000E+00
  0.00000000E+00  0.00000000E+00  0.00000000E+00
  0.00000000E+00  0.00000000E+00  0.00000000E+00
  0.00000000E+00  0.00000000E+00  0.00000000E+00
  0.00000000E+00  0.00000000E+00  0.00000000E+00
  0.00000000E+00  0.00000000E+00  0.00000000E+00
  0.00000000E+00  0.00000000E+00  0.00000000E+00
  0.00000000E+00  0.00000000E+00  0.00000000E+00
  0.00000000E+00  0.00000000E+00  0.00000000E+00
  0.00000000E+00  0.00000000E+00  0.00000000E+00
  0.00000000E+00  0.00000000E+00  0.00000000E+00
  0.00000000E+00  0.00000000E+00  0.00000000E+00
  0.00000000E+00  0.00000000E+00  0.00000000E+00
  0.00000000E+00  0.00000000E+00  0.00000000E+00
  0.00000000E+00  0.00000000E+00  0.00000000E+00
