initial\(7)                             
   1.00000000000000     
     8.3099002837999993    0.0000000000000000    0.0000000000000000
    -4.1549501418999997    7.1965847487000003    0.0000000000000000
     0.0000000000000000    0.0000000000000000   16.5235004425000014
   Pd   C    O 
    36     1     2
Selective dynamics
Direct
  0.9957597479720488 -0.0056431774219159  0.4412623543433702   T   T   T
  0.1109300000000033  0.2233000000000018  0.1602400000000017   F   F   F
  0.2213430364159208  0.1120033353988520  0.2995399976240970   T   T   T
  0.3330230668664156 -0.0021931550514286  0.4402100707453085   T   T   T
  0.4442599999999999  0.2233000000000018  0.1602400000000017   F   F   F
  0.5535117336481332  0.1103634075701422  0.2977250143129319   T   T   T
  0.6639815198438639 -0.0018035534792671  0.4359806187160504   T   T   T
  0.7775999999999996  0.2233000000000018  0.1602400000000017   F   F   F
  0.8877622399720624  0.1112706682244341  0.2992905805804519   T   T   T
  0.9886454472146592  0.3283823944133779  0.4406774978358052   T   T   T
  0.1109300000000033  0.5566400000000016  0.1602400000000017   F   F   F
  0.2206870683454731  0.4434299305235943  0.2982652164582764   T   T   T
  0.3309797150464159  0.3272332698581892  0.4518868656745142   T   T   T
  0.4442599999999999  0.5566400000000016  0.1602400000000017   F   F   F
  0.5514361596388678  0.4427977368704857  0.2993396107938313   T   T   T
  0.6639919014569641  0.3319637566913433  0.4353135528514721   T   T   T
  0.7775999999999996  0.5566400000000016  0.1602400000000017   F   F   F
  0.8869543346461412  0.4433923078801580  0.2977093130251613   T   T   T
  0.9943728463822050  0.6631383504207253  0.4346488002319200   T   T   T
  0.1109300000000033  0.8899699999999982  0.1602400000000017   F   F   F
  0.2215644985944935  0.7776807643502667  0.2983909520957445   T   T   T
  0.3372227767487241  0.6713347915119411  0.4388819463902647   T   T   T
  0.4442599999999999  0.8899699999999982  0.1602400000000017   F   F   F
  0.5533441971233203  0.7773837765694538  0.2982797147875973   T   T   T
  0.6665208452529039  0.6654885475320584  0.4354954823755553   T   T   T
  0.7775999999999996  0.8899699999999982  0.1602400000000017   F   F   F
  0.8873768268429024  0.7780609716066380  0.2973294354098635   T   T   T
  0.9998199999999997  0.0010800000000017  0.0233699999999999   F   F   F
  0.3331500000000034  0.0010800000000017  0.0233699999999999   F   F   F
  0.6664900000000031  0.0010800000000017  0.0233699999999999   F   F   F
  0.9998199999999997  0.3344099999999983  0.0233699999999999   F   F   F
  0.3331500000000034  0.3344099999999983  0.0233699999999999   F   F   F
  0.6664900000000031  0.3344099999999983  0.0233699999999999   F   F   F
  0.9998199999999997  0.6677499999999981  0.0233699999999999   F   F   F
  0.3331500000000034  0.6677499999999981  0.0233699999999999   F   F   F
  0.6664900000000031  0.6677499999999981  0.0233699999999999   F   F   F
  0.2082514216598421  0.0787032582774928  0.5237453562716200   T   T   T
  0.2088298874745467  0.4579491228852569  0.5133053603276961   T   T   T
  0.2004565237570287  0.0688620757676932  0.5956101878194637   T   T   T
 
  0.00000000E+00  0.00000000E+00  0.00000000E+00
  0.00000000E+00  0.00000000E+00  0.00000000E+00
  0.00000000E+00  0.00000000E+00  0.00000000E+00
  0.00000000E+00  0.00000000E+00  0.00000000E+00
  0.00000000E+00  0.00000000E+00  0.00000000E+00
  0.00000000E+00  0.00000000E+00  0.00000000E+00
  0.00000000E+00  0.00000000E+00  0.00000000E+00
  0.00000000E+00  0.00000000E+00  0.00000000E+00
  0.00000000E+00  0.00000000E+00  0.00000000E+00
  0.00000000E+00  0.00000000E+00  0.00000000E+00
  0.00000000E+00  0.00000000E+00  0.00000000E+00
  0.00000000E+00  0.00000000E+00  0.00000000E+00
  0.00000000E+00  0.00000000E+00  0.00000000E+00
  0.00000000E+00  0.00000000E+00  0.00000000E+00
  0.00000000E+00  0.00000000E+00  0.00000000E+00
  0.00000000E+00  0.00000000E+00  0.00000000E+00
  0.00000000E+00  0.00000000E+00  0.00000000E+00
  0.00000000E+00  0.00000000E+00  0.00000000E+00
  0.00000000E+00  0.00000000E+00  0.00000000E+00
  0.00000000E+00  0.00000000E+00  0.00000000E+00
  0.00000000E+00  0.00000000E+00  0.00000000E+00
  0.00000000E+00  0.00000000E+00  0.00000000E+00
  0.00000000E+00  0.00000000E+00  0.00000000E+00
  0.00000000E+00  0.00000000E+00  0.00000000E+00
  0.00000000E+00  0.00000000E+00  0.00000000E+00
  0.00000000E+00  0.00000000E+00  0.00000000E+00
  0.00000000E+00  0.00000000E+00  0.00000000E+00
  0.00000000E+00  0.00000000E+00  0.00000000E+00
  0.00000000E+00  0.00000000E+00  0.00000000E+00
  0.00000000E+00  0.00000000E+00  0.00000000E+00
  0.00000000E+00  0.00000000E+00  0.00000000E+00
  0.00000000E+00  0.00000000E+00  0.00000000E+00
  0.00000000E+00  0.00000000E+00  0.00000000E+00
  0.00000000E+00  0.00000000E+00  0.00000000E+00
  0.00000000E+00  0.00000000E+00  0.00000000E+00
  0.00000000E+00  0.00000000E+00  0.00000000E+00
  0.00000000E+00  0.00000000E+00  0.00000000E+00
  0.00000000E+00  0.00000000E+00  0.00000000E+00
  0.00000000E+00  0.00000000E+00  0.00000000E+00
