Mo  S Li 
 1.0000000000000000
    27.1203981867000010    0.4023603500000000   -2.4028070269000001
     0.3017446571000000   23.3624652224999991   -0.4376913698000000
    -7.1295779436000002   -0.2894054832000000   10.3645110117999995
  48 208   1
Cartesian
  9.7785044489912263  2.0678204133123108  5.6416241907794511
 18.8807890872755273 10.0347710910916579  4.5550067335466142
 20.7389546353339327 13.4316944523141437 -1.9416481221703683
 18.5954583955904837 18.7501017419618634  6.2059725032631645
  6.5406676498771263 10.8505104457444759  0.8161884678355208
 11.9886246080001495 12.5261877452392589  2.3803766604652168
 12.5023983997235391 21.3725601467131625  5.7120025322101009
 -3.3227757319307467 22.6451951774672651  7.0704961238511173
 19.7761750471750339  6.0097126126875775 -0.5269387422986421
 21.4300884976585344 21.3951108856476786  4.8765505036654355
  9.6039620828343537 22.6404322498210355 -0.4363114996950793
 18.4028511045486773 12.0981893058325483 -0.6940964415713521
 19.5660056330277463 16.1246489313752654  5.1891121143846801
 22.5016831708949567  6.4644681596689741 -0.2588037782950863
  1.2145660998761498 12.5554397226436656  5.0581477352305875
  4.7474634345977922 21.3692289345448430  8.5472739764607404
 18.8013627672541297 21.9431631884544487  5.4044854276900818
 15.3751237196826338  1.8370829751962823  0.8406515219201179
 15.8103911489859872  9.1165648682967753  3.9628917018890855
 14.4495822199607193 11.6216639870609786  0.7121230883422024
  7.2779262142587058  2.0775676193590700  2.3895206894201793
 19.4483489044349227 20.1340786033324406  3.1455852871491410
  2.3831047529932068 15.9228340219881925  4.2973921737251972
 12.7974029947178529  2.6018257600445138 -0.4653966216970312
 12.3070852243791258  1.9721733581504193  4.4008180547796627
  6.5594294063847105  4.4463058297901412  8.2873278037901557
 16.2729416578115753  4.2928152279465595 -0.4744295170668853
  6.5325402858569852  8.3083542044698984  0.0072431530091875
 22.6728717428032311 22.9468516749405502 -2.0600557103929926
 13.4053199535426728 10.2926499777012825  2.9524705715467747
  7.6230402511957820 18.2121617902540933  1.4780735757409018
 13.3620966249307216 23.1837918476125928  0.0981894631966206
 -6.1974677397040479  4.2497543606418748  9.6926162510007607
 20.4028708921774218 16.0319405808590716  2.5663971034977568
  5.6100127797643848 17.5886922998579891 -0.3560946041916955
 10.6981172259454951 23.2202798963688188  3.6944830700606670
 13.7472526041146939  0.6998014305569207  6.6756605256058723
 17.6633107957441062  3.0878270200479681  1.6491102652692688
 12.6097680050819356 20.5507444606910354  0.7814697047698208
  0.1379492007115428 10.7574062824793710  6.8166709717182528
  4.6869996663910412 15.5666458746745011  5.9335319150770607
 -3.4729677425821488  3.9143540776987518  8.9119396901833738
 -0.8030782491313889  5.0125739701062688  9.2507517007898024
  3.8610090638219510  4.1181081040915766  8.3487815633773401
  2.8446902553440756 17.7734104139129805  6.1985750542273452
  3.5215548937784380  5.7568587111648668  2.6198657820003253
 23.6664626221634933 13.8962495546516926 -2.3247457064254733
  5.4481367860219878  3.9858906090370505  1.4442531115034323
  4.5697629134038742 20.6866888377692533  1.6879846237840923
  6.4369089518083253 13.6011159910492374  5.9576597458247829
 -0.8073069072523623 18.1302537086504429  2.9719339211014155
 10.1706040868406244  2.1277280725689103  3.3483399715122610
  7.5810872441051229 21.7840797439676557  0.4860354156245971
  7.3596858143491168  4.3939077428043714  2.8109314870014854
 -3.4585920368091405 10.7932894552491501  6.3898848185234201
 17.4105591324043516  2.1975688158662461 -0.4978567982445635
 -0.7899223037811894 11.6275131582896858  4.7837322681595635
 12.9288944743030161 14.8368835038631666  6.7956102650368058
  8.4036718954630345  1.4349534452467487  0.5386807104029575
 14.3894063323189911 18.9892325642514166  1.3942922412116601
 -4.5059223333886678  6.1840464319453181  9.5541958829035956
 20.3135759585965481 18.2213197153304982  1.4204371266571902
 25.9387461944483420 13.0202502541417591 -2.1934840548571115
 16.8076742515561008 11.1942795628385685  4.2391940428712847
  1.8843643104120218  1.2587108666195783  3.8579932674983421
 -6.0007873306267783 13.9708556363381788  8.3066602750300600
 24.6374771027101644 12.5797691291735045 -0.6749017452482697
  1.9506266676896462 17.2059835336364308  2.3090763965511316
 13.5122367137857768  5.3048512104530410  5.3463443970661597
 -2.4539539071290313  1.3218953177852648  4.1146956026769850
  4.7404665762489220  9.3795313099280726  1.3608279930696974
  1.4502262196799216  5.1783953366304631  3.6827626818388421
 14.0233493089340779 10.0737756376470333  5.3014951065141052
  0.7430282509057284  3.6223347021415475  8.1253216815300711
  8.7519668760974358 17.1450121089099312  7.7994824056309850
 11.1152413231496574  4.6559860923456311  8.4756800731209267
 19.5798763113419696  8.1916631725205935 -1.1315147691684484
 21.0696322597382242  5.8645210080450871  1.4185663646074986
 21.4032015211572180  5.1676376943628046 -1.8944663773980992
  0.5111091197277283 14.3481243185805418  3.5073056072104798
  8.9481831452972287 14.6560496317530315  1.9219927788788223
 14.1077638151513920 21.9983091152406089  2.0203572693326506
 -2.0331446204586343 11.5776380757453623  7.6344661752723448
  9.6629681005767321 10.7870282534364357  8.2390567393935346
  4.2804457540793077 10.9751846903820649  3.8744008507943666
  2.0880264962147552  9.0713263729753422  6.5570208079516510
  9.1979445465701204 15.0041278048817048  7.4408057641946783
  2.9516826271160945 15.5070429073006615  1.8447616405235789
 14.2957504473853678 12.4686679210988416  3.0198660192478699
  1.6866152789184874  0.4760838306492169  5.7671907572439904
 20.0381444823064072 11.1718866352415525  0.6766575184914534
  6.8342251307182353 15.3211842665326614  4.9334526037327198
  5.0890012205900517 18.6354817539447275  1.7912754118806467
 19.9252436512143305 22.5011239886162393  3.4156825759772689
 20.0990493938729671 11.6861633200134154  4.0006619658115063
 -0.1458597976660285  6.0375407478343837  0.7814674428298333
 11.2709016016929962 22.5633093084599352  1.3762966691138132
  9.4712457360407516 16.6822340041391683  2.2892124715083439
 11.8507827488352948  2.1723746661052692  6.7448057284921648
 -3.0215561629720553  8.7897854790560679  6.3932003721104484
 21.7312056908505795  4.5761026693999183  5.0129237667824595
 22.3088636960405431  1.6635710498639442  4.1289675839468378
 -0.9737674012123269  8.6777351937564973  6.1786469857656545
  8.3031416355464369  6.6310197282259740 -0.3724366309560100
 11.2361886062643137  0.5788174656273785 -0.8663716047815071
  6.5639332064633376 13.1547079400000388 -0.0180190409326101
  7.5228123024536400 19.9884895247189753  5.0220305230385174
 10.9990475311887081 21.3527040735640661  7.5045743405647372
 11.9336132808199444 14.4836073757830981  3.6548812107303315
  8.0013160244415218  7.7051547157123892  6.2242638816537230
 14.7381502262383659  2.0587201673485711  5.2212178449634790
 18.1171122552774087  9.0015599010270577  2.5483122987809166
 21.3481949823356523 21.7825675888270140 -0.8242510045608683
  5.3760923476521221 20.3227593032382821  5.4519224564886093
 12.3252233596609297 11.3686153399058334  7.6269232745022890
 -1.7242074945156214  3.2718908006366423  4.4766043641779074
 21.4053404745118598  1.6497612243529032 -1.5423401123353304
 12.4174546256547753 18.2764264085971178  3.9640456807148641
 -1.4265690632624608 15.0153226760155860  4.0624911190521331
 -2.3528467642051010  9.6417832426853707  9.7170193084031133
  5.1447284745350252  1.6107002488256126  1.9865432747786200
 21.6619160569615765  8.5155205267065881 -0.8194329965812960
  5.3256670524614940  6.4186794569977286  1.0369576130285052
  8.0131956458470288 23.3243154303432583  3.1659543402806585
 18.8725651605768832  3.3651515045932352  3.7402422162970090
 18.4701317410022661  4.9595501496532322  6.6136389674555192
  2.4046194342015648 12.4312236454216620  0.2348502746946743
  5.5547559496707599 12.8417642125173668  1.7689990709861052
  3.7946008097668691  7.5942469642295398  4.0527022939618753
 18.7726431795227420 14.6766752765285986  3.4885159407433770
 19.6698293772090338  8.0556330619025882  3.4830995188015490
 22.9948978478926591 21.7678551576640373  3.0437835538116773
 15.5317010582174326  4.0115621493343880  1.9396497125687533
 10.0030309349595097  6.3640508710761186  3.7857764462467491
  9.7956808421277302 23.2554349389751174  5.8823182602684367
 13.1579565972353976  1.8021490240630507  1.8735154084664352
 14.4116602882178952  0.9153696645777935 -1.1452132194385836
 -2.1437634973099322 19.3699875232610701  3.9831944922196207
  2.1187830222967321 19.7783327364127999  5.1702847040512321
  9.4640791156009332  7.0897635642671339  7.6429043327504536
 24.4679023888930054 22.2495449870516389 -0.5789644399845433
 10.0472055396218902 13.7385180010141514  3.4948652506092404
 14.8984160686589302 10.8096821291775509 -1.4183430288320031
  1.3283836985445348 19.5929356090765587  7.0273370059411535
 17.9440695306541009  5.4088197932489388  0.9618249958737112
  0.6152759875865463  9.9945761587680089  9.2008424690459609
 16.7656064942270824 23.0086556835319485  0.9972658776306143
  9.6714530453953902 17.5019371661356260  0.4734089644048544
 20.0279908818633281  9.3913588715166050  6.6311205592034170
 12.8704321094570613 18.1574231333818084  0.4015793889848575
  3.3904109276322818 16.0914538014799398  7.9319330589600217
  2.1099857649634424  4.6205832197428522  6.9190931075696094
 -1.2219631348708002 21.7606201573785114  7.6476950198195119
 15.3500754292181600  6.5695744972027317 -1.2903850447372180
 -3.6307118190696808 18.0364684535646624  9.2150576088008656
 -5.0259628249315531 22.8744257503543196  8.7963761152103128
 11.1247831803370971 10.6777309730889929  3.4526299255648634
 15.5485502466375163  5.3744072784734840  5.0318769984895475
  2.3017960403164421 11.7031716786466813  7.0462856043160373
 19.7931884512326306  2.3971040330818556  2.2216715421527984
  3.3877750303982372 13.9132288809329747  4.9919044713165723
  7.6733802280892185 13.8694430760480163  7.8993411257861501
 10.1569017236992813 17.8553487104233817  6.5263728515710575
 -6.5865561486071993  2.1539474500823781 10.0813556675440132
  7.9423489835138987  9.1477705535967750  1.6090887489730239
 11.2859458425818779 19.4335460515733338  2.6957018430327202
 17.3627363399656005 20.6338523198720942  4.3143575267765177
 15.2166401867813654  9.3924992212305423  1.6664765132200714
 -2.4078170569231836 17.2109883073048060  7.7646306740762858
  5.1192722278064959  5.6668358043258520  6.6723132125384534
  9.1608087974364061  8.1512411973568479  4.6437441053412316
  1.8769051880983108  8.0938679811671470  4.7898325917308444
 18.7157914868253989 22.6558172609833939  0.2855344463093570
  8.5253680941492327  3.2551371774592881  7.5480297420394145
 14.9453732227156273 21.9269895717373586  6.1667541566153936
  8.1023940490705382 20.4216212870892662  1.9505655381589933
 20.0985048875163379 20.5600722409120920  6.8101560062597404
 19.8599365700782933 17.2484557710632309  7.3207615321056245
 15.8262350129398026 15.3872235111985489  5.0578288450435664
  1.1430966135781515  6.6822505773395759  2.3183677619272336
 24.0720600649167231  4.5303734592178406 -0.7681850744367913
 21.5408109542620707 19.3024544416520207  3.7552447875286128
 12.8269222683191870 13.4179593188282453  0.1848102697976742
 21.2718389281194682  6.6010106581375183  5.5544261196314650
 -1.9553484778723942 15.3867313869726257  8.5980542489457346
  9.0730279480375007  5.6313704561795390  2.1520169139042280
 21.6158055261453548 12.2240341814678466 -0.0867777921915164
  2.9212844655547898  4.1347151430220519  0.8522092514444675
 23.6690072461084675 20.4495828676598457  0.1758823928701762
 10.8483948362407148 10.1703978578431098 -0.0735101454468375
 17.1049545545499626  8.2514237974631435  5.9211999328309437
  4.3548672598240676 17.3611899781833117  4.5051096710065268
 17.8885414167085592 23.1491868393721205  7.3855633632175035
  2.5312652803520828 20.6196459453904346  1.2579936826130456
 -1.4306455813461432  2.7611507545616911  9.6603309296097635
  1.2624908683211886 13.9765231293250434 -0.0453799119025252
 -1.0078004464942796 22.5910871930993444  5.8005822725586826
  4.8626746276054167 19.2203429957968552  7.1537974586183086
  2.3472596772613756 11.1555454739852671  3.6378578164272883
  0.1967572367698748  6.9937387501524748  8.2731663566951941
 18.3714451764538964 17.9767007682545277  4.0584099856518225
  0.6576403362250391  0.0846407317289536  2.6353755617334929
  7.3584230286103525  1.6340768196750124  4.7749183836364404
 13.7716214545040625 19.6583872571175355  4.6788164383344668
  0.9041694744901261 16.5649137354717872  5.9182113437610360
 12.5380898142244437  4.3126372803513062  3.8448545383177435
 16.8486957076158035 12.0491849957486288  0.9939496235806407
 14.3280138357788864 16.2228411548235201  6.1414757814475180
  9.2335417531997237  4.3769827756798456  5.9224341299636603
  5.3307265360007063  2.5615183390178249  7.4887751537877980
 18.0658144604120530  9.8957699576308435  6.8631954643211488
 14.8599041932727243 13.9807814571101172  0.3153791477535632
 13.7565931286843792  4.6721104455472640  0.2049691263722246
 12.5196819983681422 20.0021031253376016  7.7929560623873861
 17.3646556790417463  3.6105023382547801  7.6430836848380563
 16.2020057561719533  6.7061068812778410  3.5887755832631467
 16.7386647168372100 18.7596666687958376  7.2560099236262126
 10.7267246572367085  3.7704059114190152  0.1260575185297073
  7.1040995138105734 12.0002355688649747  2.8695457453899524
 10.5113324906787184 20.3167181229648826 -0.4652142978227002
 18.8181109980343564 14.2913560961797330 -0.7715553658533180
  1.3025289507706181 21.4807500909076801  2.6685441860706951
 10.6400944744134058 20.8327518074257618  4.2621391069823282
 12.9989625355904970 22.9883181693021470  4.0156801501440187
  4.5952166262297647  4.2207414876254861  3.8216847623006327
 11.9397110808834253 17.9191593722403830  7.5588557304623905
 13.5195265577342116  8.2951254630967100  4.4418832985164203
 21.5143599809621549 17.0824450107730001  4.3629888727709609
 25.3027219316600203 16.7559216286526400  0.1876012975408686
  2.3160821598367911 21.8384337218228772  7.7733388434834483
  6.4107463379218643 16.1589317549853995  1.3066859225931768
  5.5350637851461180 22.1637860198219450  6.3084044265036221
 21.9515235059493001 14.7169224838015769  1.9358307206782805
 16.5506929419152620  1.1681141504047594  2.8811381672787908
  4.8936824020234670  6.2158426622850040  8.6540619970136667
 17.8866651379120967  0.7977408449795381  6.0198166180092274
 22.7089107399952859  1.9617797243749664  2.0005372687390830
 18.9517234626585491 20.6821575565487805  0.9415639831913158
 -0.1069802848985935  0.9827579810033377  6.6065934982276104
 -3.1693376194935898  1.8266547372851119  7.6807988658869224
 14.0674517386463993 21.1666680587976472 -1.0285731618951865
  5.4522378934207074 16.1804828073534850  8.1130235975094571
  0.8199996145903483 13.1052226709557598  7.4433467075667252
 10.5068230067420245 12.1264380151949833  0.4810122937335531
  7.6848191200300056 18.2436802330405499  4.0778078113124838
 17.4536760638659203 15.0071996120058984  6.3550474916391915
 -2.3074339549059704  5.3677325314241111  7.5584969192475029
 -3.8446908219610898 21.2091992660521349  8.9091710140264038
 22.3283753936231477 15.2146070960950652 -1.1382230631159922
 -1.1629491344850527  3.9105423573875422  2.6547365282336526
  7.2512445302089663 19.0071802162633006 -0.7841117693602825
 24.3355043927593364  8.0563130126573732 -0.1898635990786783
 24.1004073825276137  6.9491311447832986  1.4821928729634581
 18.9758085086922961 16.7916205858571921  0.8166962641792842
 12.7580326100026671  9.6872963592214685  0.6101773505395894
 15.2761380741909960 12.2714451289790603  6.8385228371705153
  5.0732523837016652 15.2402929795614863  2.9964839798128828
