Li4 F4                                  
    1.000000000000000     
    12.0789003372000003    0.0000000000000000    0.0000000000000000
     0.0000000000000000   12.0789003372000003    0.0000000000000000
     0.0000000000000000    0.0000000000000000   12.0789003372000003
   Li   F 
   108   107
Direct
  0.0000320392816988  0.0019550026022088  0.0016354144411963
  0.0000060547514593  0.0004012580160904  0.3333284643109238
  0.0000054302634425  0.0019685594797352  0.6650465398122947
  0.0000055135769514  0.3314240582627193  0.0016245278983718
  0.9999993490570134  0.3329674271695779  0.3333414062141884
  0.9999991031789150  0.3314330632401834  0.6650479073184243
  0.0000068518184051  0.6666443978521386  0.0169186068405764
  0.0000031027090017  0.6666471414500705  0.3333496171915939
  0.9999996425919448  0.6666614623802047  0.6498850293798952
  0.3335312253600833  0.0001928079623497  0.0003780955816239
  0.3335102581114668  0.0001687989024433  0.3333500769368314
  0.3335330255441846  0.0001915285540122  0.6662775026548928
  0.3335339817290901  0.3331752155269001  0.0003818025170190
  0.3335118968168587  0.3332033342514080  0.3333528514234629
  0.3335368808570109  0.3331794660522576  0.6662719988079218
  0.3352577149730820  0.6666350063118287  0.0016422431893943
  0.3337411638008660  0.6666442810452580  0.3333543408309936
  0.3352444532451599  0.6666354328350579  0.6650705902625305
  0.6664922272763576  0.0001915974442781  0.0003776183204494
  0.6665026154117655  0.0001650762500134  0.3333417587201453
  0.6664787654295878  0.0001907637754854  0.6662843276363830
  0.6664781435075611  0.3331666295615534  0.0003817181974881
  0.6664913266990951  0.3332020886558809  0.3333511031331469
  0.6664650018768938  0.3331775984167038  0.6662725608181574
  0.6647545652563380  0.6666415624296889  0.0016419982509390
  0.6662623488475532  0.6666452222747310  0.3333526199479380
  0.6647586138844019  0.6666363056518136  0.6650711611903759
  0.0000129586230599  0.1666587236519277  0.1670327490001569
  0.9999995580880494  0.1666716900005127  0.4995993652431565
  0.0000131468354994  0.1666504123746151  0.8333535698540402
  0.0000010599426332  0.4983758123287032  0.1685760849963671
  0.0000008746451741  0.4983648715391595  0.4980448169112037
  0.9999993741203212  0.4830814070104097  0.8333556054961235
  0.0000142392391353  0.8349522747787788  0.1685671664250705
  0.0000014358073486  0.8349540178197259  0.4980313090753299
  0.0000144606538868  0.8501147995001759  0.8333386771503655
  0.3335174661509228  0.1666519609027830  0.1668000315563134
  0.3335052149173592  0.1666568775157486  0.4998357960200863
  0.3337461129341222  0.1666490912974723  0.8333537346267192
  0.3335299462712271  0.4996183831436696  0.1668305587577095
  0.3335200811420265  0.4996226157960777  0.4998086464689635
  0.3352532119407741  0.4983587080562089  0.8333615398208565
  0.3335435953042420  0.8337274539682866  0.1668247191887886
  0.3335290452692661  0.8337199825147721  0.4998091657930956
  0.3352490743432952  0.8349272116277575  0.8333628951077969
  0.6664966532553294  0.1666460943121422  0.1667957321756077
  0.6664978259994356  0.1666534493679848  0.4998348797979091
  0.6662677978013392  0.1666442776510948  0.8333581589753081
  0.6664740868629266  0.4996184610468575  0.1668284233628583
  0.6664814791778895  0.4996227632695280  0.4998076033523091
  0.6647499315983225  0.4983583871620070  0.8333625747882891
  0.6664712565102633  0.8337301333165712  0.1668198729507040
  0.6664745540583752  0.8337200966052833  0.4998084592624465
  0.6647631196024619  0.8349308719727020  0.8333662264187254
  0.1670378273154540  0.0001971230046323  0.1668373385260438
  0.1670273484990403  0.0001931632094383  0.4998089250087219
  0.1682627716941170  0.0019676078026976  0.8333471794921294
  0.1670192427971884  0.3331732656342652  0.1668304750556189
  0.1670206075415237  0.3331692596846878  0.4998049375333338
  0.1682587171403895  0.3314243668702375  0.8333367752049838
  0.1682606449119390  0.6666604884352907  0.1685800797861532
  0.1682479645071879  0.6666484494631817  0.4980336735360424
  0.1833655019499005  0.6666359348772914  0.8333611296276828
  0.5000069741679312  0.0001661233040835  0.1668162038339531
  0.5000057779348666  0.0001622506304173  0.4998391080295974
  0.5000064588656699  0.0003918950477058  0.8333421240509296
  0.5000037061901281  0.3331943480592372  0.1668061593997265
  0.5000008400041125  0.3331845993853904  0.4998354309690001
  0.5000032672456811  0.3329656339833349  0.8333460718924641
  0.5000035041425619  0.6666545454947297  0.1670348738187144
  0.5000006967252162  0.6666585198291131  0.4996079636396900
  0.5000035196759498  0.6666498824674818  0.8333502741975352
  0.8329957854564469  0.0001952393493312  0.1668270715633753
  0.8329767384348443  0.0001913067950383  0.4998079470114547
  0.8317699411776474  0.0019668334319221  0.8333557631947812
  0.8329863754467368  0.3331687090650988  0.1668278168048118
  0.8329790277552505  0.3331672315684315  0.4998042157250069
  0.8317465459161681  0.3314189029364911  0.8333392910751840
  0.8317484777698425  0.6666641666061111  0.1685773326805560
  0.8317548350733546  0.6666497823413806  0.4980316755205578
  0.8166417376447441  0.6666401852775294  0.8333629694175855
  0.1668809273074814  0.1666639509752343  0.0002241018877456
  0.1668230704989995  0.1666513049172593  0.3333539247797574
  0.1668617060643882  0.1666504597384630  0.6664209371006962
  0.1668639044296540  0.4997804603323743  0.0002200850095946
  0.1668656254928820  0.4997755308116965  0.3333426346345476
  0.1668459574324999  0.4997796934839585  0.6664385621391418
  0.1668629512473601  0.8335574168268138  0.0002213983644808
  0.1668639297102743  0.8335779375406034  0.3333536410231304
  0.1668459194929852  0.8335636027865263  0.6664336293296458
  0.5000069077715992  0.1666675155320405  0.0001822135387926
  0.5000042430014702  0.1666561145663721  0.3333456233866201
  0.5000032844963300  0.1666545584201202  0.6664721464765719
  0.5000059195220672  0.4997810477087370  0.0002193422875152
  0.5000009750092005  0.4998181488325031  0.3333328795801904
  0.5000006095838287  0.4997796547072042  0.6664392309741700
  0.5000067726015445  0.8335609836165148  0.0002209967987028
  0.5000031862491809  0.8335296772066911  0.3333458737754853
  0.5000030950035139  0.8335652263839677  0.6664348608351034
  0.8331522889771392  0.1666532087562942  0.0002243845184466
  0.8331821181791099  0.1666472169845079  0.3333492500472133
  0.8331434344085764  0.1666474556121287  0.6664247685962223
  0.8331403413221992  0.4997801899671259  0.0002196327374833
  0.8331369836209248  0.4997764996019711  0.3333404740076560
  0.8331536538657076  0.4997795844614217  0.6664393471747800
  0.8331702001319741  0.8335649842083228  0.0002203521170401
  0.8331450618446823  0.8335782480048479  0.3333487670687845
  0.8331603823298508  0.8335656495388690  0.6664374156588124
  0.0000184193523225  0.1666811253275569  0.0004364730931385
  0.0000032549106166  0.1666772612896708  0.3333232043192424
  0.0000032362088547  0.1666743115995573  0.6662274614116939
  0.0000020685238908  0.5042680620234208  0.9957320040450668
  0.0000010871226479  0.4995638565840466  0.3333188526268671
  0.9999993927582693  0.5042584229122369  0.6709363918609554
  0.0000179846409551  0.8290635717312327  0.9957417033658160
  0.0000056569724052  0.8337731879496530  0.3333256965293145
  0.0000044283535630  0.8290762859122367  0.6709236806155658
  0.3329900019667775  0.1666787692298897  0.9997531128877242
  0.3331700403900726  0.1666719169949147  0.3333331840695948
  0.3329891133374332  0.1666710875594219  0.6669075835059317
  0.3323738274034440  0.5008120170249839  0.9991883685729519
  0.3329815926088742  0.5002466994084713  0.3333260074342235
  0.3323704101559102  0.5008143643389076  0.6675017420814626
  0.3323802584050242  0.8324954010680585  0.9991865533456163
  0.3329898760511512  0.8330923499123060  0.3333323702612887
  0.3323782605061965  0.8325015041737629  0.6674962761931909
  0.6670293639643887  0.1666716448445413  0.9997534220753437
  0.6668380557812910  0.1666683671239753  0.3333293735919725
  0.6670181377576654  0.1666686211379442  0.6669108528420651
  0.6676348297417007  0.5008118829431965  0.9991884601725047
  0.6670210092897761  0.5002473985785940  0.3333243310322587
  0.6676307497333980  0.5008140760101369  0.6675023668283728
  0.6676403384541985  0.8325011217281286  0.9991863706377231
  0.6670184296419137  0.8330921872852173  0.3333287499236803
  0.6676292776577526  0.8325028321780863  0.6674996347572986
  0.0000191277015631  0.9992590992883663  0.1659194190453306
  0.0000015464216716  0.9992785074614687  0.5007218463043515
  0.0000191876389053  0.0031829439835320  0.8333395884460302
  0.0000036585782155  0.3340826718016103  0.1659174522824713
  0.9999993295136989  0.3340808474722721  0.5007411979184866
  0.0000034182222706  0.3301263568121655  0.8333308594988651
  0.0000056769191730  0.6666695087076207  0.1698737314412213
  0.0000011582566586  0.6666607624932794  0.4968168928921202
  0.3330166572086952  0.9996849108479537  0.1663446343121819
  0.3330023969516631  0.9996852881934046  0.5003168637772362
  0.3325949260955952  0.9992573412485726  0.8333332595547631
  0.3330140619468978  0.3336621391017047  0.1663409973223509
  0.3330073358976549  0.3336603029539660  0.5003175750073652
  0.3325943378669933  0.3340794097486466  0.8333362771436157
  0.3325954315868458  0.6666617428258306  0.1659239540006041
  0.3325860490527361  0.6666635094000668  0.5007430754885007
  0.3364733147753753  0.6666486779735834  0.8333489069932867
  0.6670032082703230  0.9996832080794107  0.1663378616011997
  0.6670066929217668  0.9996835109708613  0.5003165275580983
  0.6674255034552132  0.9992570034691113  0.8333400241420819
  0.6669936665372944  0.3336584093282511  0.1663393097924200
  0.6669942663210762  0.3336586422010299  0.5003169163362031
  0.6674125959752431  0.3340757001837460  0.8333380194505011
  0.6674134984813378  0.6666650077017735  0.1659220295874491
  0.6674164931014204  0.6666644599696099  0.5007423430347160
  0.6635341299474860  0.6666520758340013  0.8333509522271569
  0.1664233416028011  0.1666730127120104  0.1663167856779921
  0.1664159677506944  0.1666764243279033  0.5003411175675367
  0.1671062119523796  0.1666726534296643  0.8333347593919740
  0.1658309452077447  0.5008318430883989  0.1657138683021842
  0.1658285735182332  0.5008255448771237  0.5009423872639616
  0.1623682757305360  0.5042587689428686  0.8333398486259540
  0.1658427541657090  0.8325146229493186  0.1657194754046216
  0.1658294992848823  0.8325100759126229  0.5009411519960167
  0.1623819603949883  0.8290617868931704  0.8333393290905917
  0.5000058013479887  0.1666744027808065  0.1664971952177297
  0.5000029889580020  0.1666776755357873  0.5001626834694974
  0.5000055989390404  0.1666716729150934  0.8333350272260702
  0.5000029836471072  0.5002469569691570  0.1663202839928388
  0.5000007138826277  0.5002371496341240  0.5003316741240269
  0.5000026154746493  0.4995649920647907  0.8333329387984563
  0.5000058230123727  0.8330899861652483  0.1663179884291281
  0.5000027061395826  0.8330815862327725  0.5003396720432178
  0.5000056478849331  0.8337668384375476  0.8333402342858207
  0.8335979749630695  0.1666678272014579  0.1663124509965925
  0.8335857977262009  0.1666735636959018  0.5003406938387229
  0.8329149946964023  0.1666680530891753  0.8333392724136033
  0.8341731933643786  0.5008321867592826  0.1657120825536751
  0.8341728765657948  0.5008258994304668  0.5009417575385129
  0.8376328616180189  0.5042587282457873  0.8333415326247433
  0.8341806985358176  0.8325177116518958  0.1657153351264853
  0.8341747092272485  0.8325106772869475  0.5009408602441852
  0.8376421714939539  0.8290649447828358  0.8333434655504277
  0.1658503569729461  0.9990581366848517  0.9991746513871362
  0.1664216361314033  0.9996613427459309  0.3333292497505695
  0.1658333755068071  0.9990593177617839  0.6674867416348675
  0.1658347290228903  0.3342905593313859  0.9991680612278913
  0.1664134536574835  0.3336866388229183  0.3333311480806174
  0.1658312361022993  0.3342840598250802  0.6674836745257977
  0.1623748982484585  0.6666564983305605  0.9957415466892385
  0.1670986009666180  0.6666627540785299  0.3333308397038479
  0.1623706364464468  0.6666577488291736  0.6709358663488203
  0.5000068379964375  0.9996687100400763  0.9997633734927902
  0.5000062440454727  0.9998393899684146  0.3333234892789534
  0.5000059462341397  0.9996605230755335  0.6669194391109414
  0.5000059201803282  0.3336801696659961  0.9997533550131976
  0.5000022174194783  0.3335035351894291  0.3333267055078650
  0.5000014805449311  0.3336827253991714  0.6669111631392539
  0.5000061294595213  0.6666673868391300  0.0004355440452599
  0.5000015857234743  0.6666658131029877  0.3333285415459386
  0.5000018348681081  0.6666601290958951  0.6662331183413670
  0.8341945167812170  0.9990579578205967  0.9991747725974562
  0.8335911845901407  0.9996590234428879  0.3333218897107812
  0.8341787489232502  0.9990586706330262  0.6674936149130701
  0.8341769716980849  0.3342838193041544  0.9991683261403708
  0.8335882790930000  0.3336849699973925  0.3333290307793746
  0.8341696015680284  0.3342819858318151  0.6674851705669766
  0.8376394601339214  0.6666623508567966  0.9957414544855396
  0.8329070156306386  0.6666643330282653  0.3333285646871360
  0.8376309768534682  0.6666597605879119  0.6709374315170891
 
  0.00000000E+00  0.00000000E+00  0.00000000E+00
  0.00000000E+00  0.00000000E+00  0.00000000E+00
  0.00000000E+00  0.00000000E+00  0.00000000E+00
  0.00000000E+00  0.00000000E+00  0.00000000E+00
  0.00000000E+00  0.00000000E+00  0.00000000E+00
  0.00000000E+00  0.00000000E+00  0.00000000E+00
  0.00000000E+00  0.00000000E+00  0.00000000E+00
  0.00000000E+00  0.00000000E+00  0.00000000E+00
  0.00000000E+00  0.00000000E+00  0.00000000E+00
  0.00000000E+00  0.00000000E+00  0.00000000E+00
  0.00000000E+00  0.00000000E+00  0.00000000E+00
  0.00000000E+00  0.00000000E+00  0.00000000E+00
  0.00000000E+00  0.00000000E+00  0.00000000E+00
  0.00000000E+00  0.00000000E+00  0.00000000E+00
  0.00000000E+00  0.00000000E+00  0.00000000E+00
  0.00000000E+00  0.00000000E+00  0.00000000E+00
  0.00000000E+00  0.00000000E+00  0.00000000E+00
  0.00000000E+00  0.00000000E+00  0.00000000E+00
  0.00000000E+00  0.00000000E+00  0.00000000E+00
  0.00000000E+00  0.00000000E+00  0.00000000E+00
  0.00000000E+00  0.00000000E+00  0.00000000E+00
  0.00000000E+00  0.00000000E+00  0.00000000E+00
  0.00000000E+00  0.00000000E+00  0.00000000E+00
  0.00000000E+00  0.00000000E+00  0.00000000E+00
  0.00000000E+00  0.00000000E+00  0.00000000E+00
  0.00000000E+00  0.00000000E+00  0.00000000E+00
  0.00000000E+00  0.00000000E+00  0.00000000E+00
  0.00000000E+00  0.00000000E+00  0.00000000E+00
  0.00000000E+00  0.00000000E+00  0.00000000E+00
  0.00000000E+00  0.00000000E+00  0.00000000E+00
  0.00000000E+00  0.00000000E+00  0.00000000E+00
  0.00000000E+00  0.00000000E+00  0.00000000E+00
  0.00000000E+00  0.00000000E+00  0.00000000E+00
  0.00000000E+00  0.00000000E+00  0.00000000E+00
  0.00000000E+00  0.00000000E+00  0.00000000E+00
  0.00000000E+00  0.00000000E+00  0.00000000E+00
  0.00000000E+00  0.00000000E+00  0.00000000E+00
  0.00000000E+00  0.00000000E+00  0.00000000E+00
  0.00000000E+00  0.00000000E+00  0.00000000E+00
  0.00000000E+00  0.00000000E+00  0.00000000E+00
  0.00000000E+00  0.00000000E+00  0.00000000E+00
  0.00000000E+00  0.00000000E+00  0.00000000E+00
  0.00000000E+00  0.00000000E+00  0.00000000E+00
  0.00000000E+00  0.00000000E+00  0.00000000E+00
  0.00000000E+00  0.00000000E+00  0.00000000E+00
  0.00000000E+00  0.00000000E+00  0.00000000E+00
  0.00000000E+00  0.00000000E+00  0.00000000E+00
  0.00000000E+00  0.00000000E+00  0.00000000E+00
  0.00000000E+00  0.00000000E+00  0.00000000E+00
  0.00000000E+00  0.00000000E+00  0.00000000E+00
  0.00000000E+00  0.00000000E+00  0.00000000E+00
  0.00000000E+00  0.00000000E+00  0.00000000E+00
  0.00000000E+00  0.00000000E+00  0.00000000E+00
  0.00000000E+00  0.00000000E+00  0.00000000E+00
  0.00000000E+00  0.00000000E+00  0.00000000E+00
  0.00000000E+00  0.00000000E+00  0.00000000E+00
  0.00000000E+00  0.00000000E+00  0.00000000E+00
  0.00000000E+00  0.00000000E+00  0.00000000E+00
  0.00000000E+00  0.00000000E+00  0.00000000E+00
  0.00000000E+00  0.00000000E+00  0.00000000E+00
  0.00000000E+00  0.00000000E+00  0.00000000E+00
  0.00000000E+00  0.00000000E+00  0.00000000E+00
  0.00000000E+00  0.00000000E+00  0.00000000E+00
  0.00000000E+00  0.00000000E+00  0.00000000E+00
  0.00000000E+00  0.00000000E+00  0.00000000E+00
  0.00000000E+00  0.00000000E+00  0.00000000E+00
  0.00000000E+00  0.00000000E+00  0.00000000E+00
  0.00000000E+00  0.00000000E+00  0.00000000E+00
  0.00000000E+00  0.00000000E+00  0.00000000E+00
  0.00000000E+00  0.00000000E+00  0.00000000E+00
  0.00000000E+00  0.00000000E+00  0.00000000E+00
  0.00000000E+00  0.00000000E+00  0.00000000E+00
  0.00000000E+00  0.00000000E+00  0.00000000E+00
  0.00000000E+00  0.00000000E+00  0.00000000E+00
  0.00000000E+00  0.00000000E+00  0.00000000E+00
  0.00000000E+00  0.00000000E+00  0.00000000E+00
  0.00000000E+00  0.00000000E+00  0.00000000E+00
  0.00000000E+00  0.00000000E+00  0.00000000E+00
  0.00000000E+00  0.00000000E+00  0.00000000E+00
  0.00000000E+00  0.00000000E+00  0.00000000E+00
  0.00000000E+00  0.00000000E+00  0.00000000E+00
  0.00000000E+00  0.00000000E+00  0.00000000E+00
  0.00000000E+00  0.00000000E+00  0.00000000E+00
  0.00000000E+00  0.00000000E+00  0.00000000E+00
  0.00000000E+00  0.00000000E+00  0.00000000E+00
  0.00000000E+00  0.00000000E+00  0.00000000E+00
  0.00000000E+00  0.00000000E+00  0.00000000E+00
  0.00000000E+00  0.00000000E+00  0.00000000E+00
  0.00000000E+00  0.00000000E+00  0.00000000E+00
  0.00000000E+00  0.00000000E+00  0.00000000E+00
  0.00000000E+00  0.00000000E+00  0.00000000E+00
  0.00000000E+00  0.00000000E+00  0.00000000E+00
  0.00000000E+00  0.00000000E+00  0.00000000E+00
  0.00000000E+00  0.00000000E+00  0.00000000E+00
  0.00000000E+00  0.00000000E+00  0.00000000E+00
  0.00000000E+00  0.00000000E+00  0.00000000E+00
  0.00000000E+00  0.00000000E+00  0.00000000E+00
  0.00000000E+00  0.00000000E+00  0.00000000E+00
  0.00000000E+00  0.00000000E+00  0.00000000E+00
  0.00000000E+00  0.00000000E+00  0.00000000E+00
  0.00000000E+00  0.00000000E+00  0.00000000E+00
  0.00000000E+00  0.00000000E+00  0.00000000E+00
  0.00000000E+00  0.00000000E+00  0.00000000E+00
  0.00000000E+00  0.00000000E+00  0.00000000E+00
  0.00000000E+00  0.00000000E+00  0.00000000E+00
  0.00000000E+00  0.00000000E+00  0.00000000E+00
  0.00000000E+00  0.00000000E+00  0.00000000E+00
  0.00000000E+00  0.00000000E+00  0.00000000E+00
  0.00000000E+00  0.00000000E+00  0.00000000E+00
  0.00000000E+00  0.00000000E+00  0.00000000E+00
  0.00000000E+00  0.00000000E+00  0.00000000E+00
  0.00000000E+00  0.00000000E+00  0.00000000E+00
  0.00000000E+00  0.00000000E+00  0.00000000E+00
  0.00000000E+00  0.00000000E+00  0.00000000E+00
  0.00000000E+00  0.00000000E+00  0.00000000E+00
  0.00000000E+00  0.00000000E+00  0.00000000E+00
  0.00000000E+00  0.00000000E+00  0.00000000E+00
  0.00000000E+00  0.00000000E+00  0.00000000E+00
  0.00000000E+00  0.00000000E+00  0.00000000E+00
  0.00000000E+00  0.00000000E+00  0.00000000E+00
  0.00000000E+00  0.00000000E+00  0.00000000E+00
  0.00000000E+00  0.00000000E+00  0.00000000E+00
  0.00000000E+00  0.00000000E+00  0.00000000E+00
  0.00000000E+00  0.00000000E+00  0.00000000E+00
  0.00000000E+00  0.00000000E+00  0.00000000E+00
  0.00000000E+00  0.00000000E+00  0.00000000E+00
  0.00000000E+00  0.00000000E+00  0.00000000E+00
  0.00000000E+00  0.00000000E+00  0.00000000E+00
  0.00000000E+00  0.00000000E+00  0.00000000E+00
  0.00000000E+00  0.00000000E+00  0.00000000E+00
  0.00000000E+00  0.00000000E+00  0.00000000E+00
  0.00000000E+00  0.00000000E+00  0.00000000E+00
  0.00000000E+00  0.00000000E+00  0.00000000E+00
  0.00000000E+00  0.00000000E+00  0.00000000E+00
  0.00000000E+00  0.00000000E+00  0.00000000E+00
  0.00000000E+00  0.00000000E+00  0.00000000E+00
  0.00000000E+00  0.00000000E+00  0.00000000E+00
  0.00000000E+00  0.00000000E+00  0.00000000E+00
  0.00000000E+00  0.00000000E+00  0.00000000E+00
  0.00000000E+00  0.00000000E+00  0.00000000E+00
  0.00000000E+00  0.00000000E+00  0.00000000E+00
  0.00000000E+00  0.00000000E+00  0.00000000E+00
  0.00000000E+00  0.00000000E+00  0.00000000E+00
  0.00000000E+00  0.00000000E+00  0.00000000E+00
  0.00000000E+00  0.00000000E+00  0.00000000E+00
  0.00000000E+00  0.00000000E+00  0.00000000E+00
  0.00000000E+00  0.00000000E+00  0.00000000E+00
  0.00000000E+00  0.00000000E+00  0.00000000E+00
  0.00000000E+00  0.00000000E+00  0.00000000E+00
  0.00000000E+00  0.00000000E+00  0.00000000E+00
  0.00000000E+00  0.00000000E+00  0.00000000E+00
  0.00000000E+00  0.00000000E+00  0.00000000E+00
  0.00000000E+00  0.00000000E+00  0.00000000E+00
  0.00000000E+00  0.00000000E+00  0.00000000E+00
  0.00000000E+00  0.00000000E+00  0.00000000E+00
  0.00000000E+00  0.00000000E+00  0.00000000E+00
  0.00000000E+00  0.00000000E+00  0.00000000E+00
  0.00000000E+00  0.00000000E+00  0.00000000E+00
  0.00000000E+00  0.00000000E+00  0.00000000E+00
  0.00000000E+00  0.00000000E+00  0.00000000E+00
  0.00000000E+00  0.00000000E+00  0.00000000E+00
  0.00000000E+00  0.00000000E+00  0.00000000E+00
  0.00000000E+00  0.00000000E+00  0.00000000E+00
  0.00000000E+00  0.00000000E+00  0.00000000E+00
  0.00000000E+00  0.00000000E+00  0.00000000E+00
  0.00000000E+00  0.00000000E+00  0.00000000E+00
  0.00000000E+00  0.00000000E+00  0.00000000E+00
  0.00000000E+00  0.00000000E+00  0.00000000E+00
  0.00000000E+00  0.00000000E+00  0.00000000E+00
  0.00000000E+00  0.00000000E+00  0.00000000E+00
  0.00000000E+00  0.00000000E+00  0.00000000E+00
  0.00000000E+00  0.00000000E+00  0.00000000E+00
  0.00000000E+00  0.00000000E+00  0.00000000E+00
  0.00000000E+00  0.00000000E+00  0.00000000E+00
  0.00000000E+00  0.00000000E+00  0.00000000E+00
  0.00000000E+00  0.00000000E+00  0.00000000E+00
  0.00000000E+00  0.00000000E+00  0.00000000E+00
  0.00000000E+00  0.00000000E+00  0.00000000E+00
  0.00000000E+00  0.00000000E+00  0.00000000E+00
  0.00000000E+00  0.00000000E+00  0.00000000E+00
  0.00000000E+00  0.00000000E+00  0.00000000E+00
  0.00000000E+00  0.00000000E+00  0.00000000E+00
  0.00000000E+00  0.00000000E+00  0.00000000E+00
  0.00000000E+00  0.00000000E+00  0.00000000E+00
  0.00000000E+00  0.00000000E+00  0.00000000E+00
  0.00000000E+00  0.00000000E+00  0.00000000E+00
  0.00000000E+00  0.00000000E+00  0.00000000E+00
  0.00000000E+00  0.00000000E+00  0.00000000E+00
  0.00000000E+00  0.00000000E+00  0.00000000E+00
  0.00000000E+00  0.00000000E+00  0.00000000E+00
  0.00000000E+00  0.00000000E+00  0.00000000E+00
  0.00000000E+00  0.00000000E+00  0.00000000E+00
  0.00000000E+00  0.00000000E+00  0.00000000E+00
  0.00000000E+00  0.00000000E+00  0.00000000E+00
  0.00000000E+00  0.00000000E+00  0.00000000E+00
  0.00000000E+00  0.00000000E+00  0.00000000E+00
  0.00000000E+00  0.00000000E+00  0.00000000E+00
  0.00000000E+00  0.00000000E+00  0.00000000E+00
  0.00000000E+00  0.00000000E+00  0.00000000E+00
  0.00000000E+00  0.00000000E+00  0.00000000E+00
  0.00000000E+00  0.00000000E+00  0.00000000E+00
  0.00000000E+00  0.00000000E+00  0.00000000E+00
  0.00000000E+00  0.00000000E+00  0.00000000E+00
  0.00000000E+00  0.00000000E+00  0.00000000E+00
  0.00000000E+00  0.00000000E+00  0.00000000E+00
  0.00000000E+00  0.00000000E+00  0.00000000E+00
  0.00000000E+00  0.00000000E+00  0.00000000E+00
  0.00000000E+00  0.00000000E+00  0.00000000E+00
  0.00000000E+00  0.00000000E+00  0.00000000E+00
  0.00000000E+00  0.00000000E+00  0.00000000E+00
  0.00000000E+00  0.00000000E+00  0.00000000E+00
  0.00000000E+00  0.00000000E+00  0.00000000E+00
  0.00000000E+00  0.00000000E+00  0.00000000E+00
  0.00000000E+00  0.00000000E+00  0.00000000E+00
  0.00000000E+00  0.00000000E+00  0.00000000E+00
