Pd  C  O 
 1.0000000000000000
     8.3099002837999993    0.0000000000000000    0.0000000000000000
    -4.1549501418999997    7.1965847487000003    0.0000000000000000
     0.0000000000000000    0.0000000000000000   16.5235004425000014
  36   1   2
Selective dynamics
Cartesian
  8.3043250965915014  0.0012840606136310  7.2313550449112229   T   T   T
 -0.0059831282043160  1.6069973743847230  2.6477257109062280   F   F   F
  1.3779268375337836  0.8077110105512394  4.9319190974664266   T   T   T
  2.7652009980756116  0.0052813380395943  7.2269987683126429   T   T   T
  2.7639559333947092  1.6069973743847230  2.6477257109062280   F   F   F
  4.1480532652706419  0.8057048601155541  4.9278345813403632   T   T   T
  5.5333499782035140  0.0056036125299412  7.2192447697991069   T   T   T
  5.5339780939965992  1.6069973743847230  2.6477257109062280   F   F   F
  6.9187430514647446  0.8061810998770262  4.9314351987841283   T   T   T
  6.9116462457986962  2.4011920850409099  7.2287010452727083   T   T   T
 -1.3909942085052609  4.0059069345163794  2.6477257109062280   F   F   F
 -0.0065559310328985  3.2048699765480020  4.9292305040600164   T   T   T
  1.3806310061817395  2.4010897460709706  7.2494103638094805   T   T   T
  1.3789448530937642  4.0059069345163794  2.6477257109062280   F   F   F
  2.7612449706986029  3.2042504428159804  4.9302224318526413   T   T   T
  4.1476252297139817  2.4047513766207103  7.2166625438088854   T   T   T
  4.1489670136956542  4.0059069345163794  2.6477257109062280   F   F   F
  5.5333985062908839  3.2044976515229155  4.9279315834510093   T   T   T
  5.5308970400705872  4.8015813377380905  7.2165415507100779   T   T   T
 -2.7759637393047738  6.4047445288005260  2.6477257109062280   F   F   F
 -1.3909242835924402  5.6042454245594397  4.9288116167567750   T   T   T
 -0.0042998307928056  4.8088340658256579  7.2249226174969747   T   T   T
 -0.0060246777057485  6.4047445288005260  2.6477257109062280   F   F   F
  1.3773951541722382  5.6033845284037866  4.9289647169292561   T   T   T
  2.7652519645279030  4.8038129991403400  7.2176224202764621   T   T   T
  2.7639974828961416  6.4047445288005260  2.6477257109062280   F   F   F
  4.1480080077927344  5.6047984833723588  4.9273794623758924   T   T   T
  8.3039171555956539  0.0077723115286082  0.3861542053412234   F   F   F
  2.7639559333947390  0.0077723115286082  0.3861542053412234   F   F   F
  5.5339780939966285  0.0077723115286082  0.3861542053412234   F   F   F
  6.9189476247961403  2.4066099058127550  0.3861542053412234   F   F   F
  1.3789864025952261  2.4066099058127550  0.3861542053412234   F   F   F
  4.1490085631971159  2.4066099058127550  0.3861542053412234   F   F   F
  5.5339365444951953  4.8055194659444114  0.3861542053412234   F   F   F
 -0.0060246777057187  4.8055194659444114  0.3861542053412234   F   F   F
  2.7639974828961709  4.8055194659444114  0.3861542053412234   F   F   F
  1.5459102530670663  0.9001928947585528 11.6571615894720431   T   T   T
  0.9774568153862285  2.1236578822679451 11.5998207101080890   T   T   T
  1.9926992272564810 -0.1622623500204080 11.8559022575058268   T   T   T
