Li   Nb   Mo   O                        
   1.00000000000000     
    22.7851428986000002    0.0000000000000000    0.0000000000000000
     0.0000000000000000    3.8768503666000003    0.0000000000000000
    -9.9730516296000005    0.0000024128000000   15.1282481845000003
   Li   Nb   Mo   O 
     1    24     2    66
Direct
  0.3147576546956191  0.9647556773161660  0.6371323327515852
  0.3671621425023684  0.0037472055815722  0.0458973573802186
  0.6340490310592953  0.0045695677814181  0.9537318485401126
  0.8652973105175725  0.5066470404262825  0.0442670434883149
  0.1314747899117968  0.5086333243490846  0.9552557996778617
  0.2487677904493681  0.0028707580474059  0.1373112081878040
  0.7523989775077866  0.0022269751439496  0.8614098328137604
  0.7480330577159710  0.5014720610581030  0.1376469504599433
  0.2498370128918447  0.4999563788148843  0.8647904987545459
  0.1303567428656855  0.9936439624586960  0.2308252891377204
  0.8693892293756389  0.9987207968236572  0.7672765743762898
  0.6321476269124902  0.4990825346469670  0.2329022092422263
  0.3723015865721513  0.4726264138294333  0.7756836868830147
  0.4200560113618593  0.9665424216562369  0.3786831120933327
  0.5848616801454585  0.9645584669086780  0.6168046578875095
  0.9177597140566244  0.4654041785743334  0.3814187617362808
  0.0827694669915943  0.4639436591919032  0.6197403310213220
  0.2987246658963175 -0.0016724872855554  0.4672886065470384
  0.7032923288821818  0.0033976037561879  0.5258518673236753
  0.7993575455970287  0.5034902907877372  0.4732039120585380
  0.1983458748536436  0.4854472129763250  0.5220407065813355
  0.4678495824174153 -0.0108348357330694  0.7121409531555878
  0.5376946451293612  0.0027493758360335  0.2864697221488977
  0.9642427071023673  0.5007879559218112  0.7124020240083767
  0.0327079133188880  0.4979270659819154  0.2829539586708186
  0.9995927240492848  0.2508343825292836  0.0004909696096951
  0.5006681193751208  0.7451262224371854  0.0001679021057743
  0.0003987480515615  0.4883241965703677  0.5005477506628659
  0.5008633855551333  0.9897660729776941  0.4990275113197936
  0.1487109441834563  0.0028783411686700  0.9912510888573247
  0.8503400645738373  0.0031894325948452  0.0086300610312900
  0.6492793527234499  0.5018647367403897  0.9903263727889560
  0.3511082262033972  0.4995464541563868  0.0090965521306245
  0.3033530601335261 -0.0000825013035449  0.0812876113951572
  0.6963178764686299  0.0031693210679576  0.9169697011223865
  0.8031203369246567  0.5033020257291997  0.0810822580338431
  0.1961719671534045  0.4968579866078558  0.9194651847268815
  0.0337913839499481  0.9976091693866976  0.0989324045660592
  0.9658947081695529  0.9998268855187460  0.9024673475754811
  0.5343823880974578  0.4982703866951688  0.0983739204149116
  0.4665462868897968  0.4893514888385776  0.9004226015558887
  0.4501404199504191  0.0023616747277845  0.1551967543784598
  0.5501420758471507 -0.0055405109849048  0.8437819104923172
  0.9491873301514177  0.4991782012973104  0.1554282716534540
  0.0500885596038382  0.5055843264587772  0.8448223863786550
  0.1801523795959665 -0.0002234983486171  0.1776934926015299
  0.8205689182174670  0.0033693300017318  0.8228299222679333
  0.6799103311837562  0.5034661316161553  0.1763117882783337
  0.3203230514103896  0.4831049515682445  0.8243452869584965
  0.0492191718279640 -0.0037579387581515  0.2706690567594200
  0.9508322259620038  0.0015910596976447  0.7301077842304782
  0.5506260415921148  0.5020606292201361  0.2690556112242714
  0.4525616050482565  0.4864996837582419  0.7291017305899817
  0.3259493697607240  0.9995069669179719  0.2493076032597843
  0.6753815144341224  0.9975676494898854  0.7493150188570160
  0.8256332804713511  0.4973704352029518  0.2494319164347385
  0.1749133581868207  0.4978299507341443  0.7510144779003680
  0.4773123196756343  1.0004349933039702  0.3254575091955655
  0.5255800055615648  0.9945876553548195  0.6718547846159783
  0.9771621467037732  0.4984482519806925  0.3275586030120176
  0.0246568561119323  0.4950029318219322  0.6739039655170629
  0.2067951122060833 -0.0053902533278467  0.3489686690798939
  0.7932848055086797  0.0021660044010980  0.6509757876675060
  0.7082639679813248  0.5021178724729122  0.3486692639343954
  0.2967240463905823  0.4776053169330987  0.6530655250896424
  0.3537221878570941  0.0023646957294280  0.4229443591827945
  0.6486206735706647  0.9986471203714565  0.5732247377286060
  0.8532625835118236  0.4993075190952250  0.4253028858181391
  0.1481475029705450  0.4891456951617234  0.5743783853342171
  0.2253026829798058 -0.0142204827390173  0.5244101617835809
  0.7793881268823705  0.0030051862953692  0.4808995817657826
  0.7225877958835207  0.5029432279830972  0.5180035803736998
  0.2797374376913291  0.4929043213468730  0.4795243676659211
  0.3773753467074798 -0.0115947799332353  0.5958592061909929
  0.6226857769765318  0.0027208068055283  0.4032591449251022
  0.8789240086506542  0.5030799898475865  0.5958481806440646
  0.1225827804649115  0.4889380142513502  0.4036972096551761
  0.0915200191636972  0.9886762723415862  0.6311939742395144
  0.9104762082737077  0.9912602356193901  0.3684361517535860
  0.5915514383951967  0.4903450675993647  0.6298621342521951
  0.4111185216034373  0.4927604369279083  0.3675349910999963
  0.3910779607432172  0.9783125254918968  0.7647825423467041
  0.6064000702170178  0.0011392612903334  0.2312193235688287
  0.8947060009067577  0.5010321691401665  0.7681815963374646
  0.1056905632578423  0.4963073626199263  0.2316596788238535
  0.2755741406158580 -0.0027047996587827  0.8969926395117838
  0.7242556773940310  0.0023087562190814  0.1025537457727770
  0.7758497295038610  0.5029804845415073  0.8967227360851663
  0.2244065476887073  0.5022120076436755  0.1039156267802253
  0.4293276241302161 -0.0029273616111386  0.9862982754555183
  0.5709660559893787 -0.0001704040767053  0.0127184825752568
  0.9283452621477589  0.5024613817577110  0.9870812929352084
  0.0714034648330340  0.5022671872588106  0.0139665288513174
 
  0.00000000E+00  0.00000000E+00  0.00000000E+00
  0.00000000E+00  0.00000000E+00  0.00000000E+00
  0.00000000E+00  0.00000000E+00  0.00000000E+00
  0.00000000E+00  0.00000000E+00  0.00000000E+00
  0.00000000E+00  0.00000000E+00  0.00000000E+00
  0.00000000E+00  0.00000000E+00  0.00000000E+00
  0.00000000E+00  0.00000000E+00  0.00000000E+00
  0.00000000E+00  0.00000000E+00  0.00000000E+00
  0.00000000E+00  0.00000000E+00  0.00000000E+00
  0.00000000E+00  0.00000000E+00  0.00000000E+00
  0.00000000E+00  0.00000000E+00  0.00000000E+00
  0.00000000E+00  0.00000000E+00  0.00000000E+00
  0.00000000E+00  0.00000000E+00  0.00000000E+00
  0.00000000E+00  0.00000000E+00  0.00000000E+00
  0.00000000E+00  0.00000000E+00  0.00000000E+00
  0.00000000E+00  0.00000000E+00  0.00000000E+00
  0.00000000E+00  0.00000000E+00  0.00000000E+00
  0.00000000E+00  0.00000000E+00  0.00000000E+00
  0.00000000E+00  0.00000000E+00  0.00000000E+00
  0.00000000E+00  0.00000000E+00  0.00000000E+00
  0.00000000E+00  0.00000000E+00  0.00000000E+00
  0.00000000E+00  0.00000000E+00  0.00000000E+00
  0.00000000E+00  0.00000000E+00  0.00000000E+00
  0.00000000E+00  0.00000000E+00  0.00000000E+00
  0.00000000E+00  0.00000000E+00  0.00000000E+00
  0.00000000E+00  0.00000000E+00  0.00000000E+00
  0.00000000E+00  0.00000000E+00  0.00000000E+00
  0.00000000E+00  0.00000000E+00  0.00000000E+00
  0.00000000E+00  0.00000000E+00  0.00000000E+00
  0.00000000E+00  0.00000000E+00  0.00000000E+00
  0.00000000E+00  0.00000000E+00  0.00000000E+00
  0.00000000E+00  0.00000000E+00  0.00000000E+00
  0.00000000E+00  0.00000000E+00  0.00000000E+00
  0.00000000E+00  0.00000000E+00  0.00000000E+00
  0.00000000E+00  0.00000000E+00  0.00000000E+00
  0.00000000E+00  0.00000000E+00  0.00000000E+00
  0.00000000E+00  0.00000000E+00  0.00000000E+00
  0.00000000E+00  0.00000000E+00  0.00000000E+00
  0.00000000E+00  0.00000000E+00  0.00000000E+00
  0.00000000E+00  0.00000000E+00  0.00000000E+00
  0.00000000E+00  0.00000000E+00  0.00000000E+00
  0.00000000E+00  0.00000000E+00  0.00000000E+00
  0.00000000E+00  0.00000000E+00  0.00000000E+00
  0.00000000E+00  0.00000000E+00  0.00000000E+00
  0.00000000E+00  0.00000000E+00  0.00000000E+00
  0.00000000E+00  0.00000000E+00  0.00000000E+00
  0.00000000E+00  0.00000000E+00  0.00000000E+00
  0.00000000E+00  0.00000000E+00  0.00000000E+00
  0.00000000E+00  0.00000000E+00  0.00000000E+00
  0.00000000E+00  0.00000000E+00  0.00000000E+00
  0.00000000E+00  0.00000000E+00  0.00000000E+00
  0.00000000E+00  0.00000000E+00  0.00000000E+00
  0.00000000E+00  0.00000000E+00  0.00000000E+00
  0.00000000E+00  0.00000000E+00  0.00000000E+00
  0.00000000E+00  0.00000000E+00  0.00000000E+00
  0.00000000E+00  0.00000000E+00  0.00000000E+00
  0.00000000E+00  0.00000000E+00  0.00000000E+00
  0.00000000E+00  0.00000000E+00  0.00000000E+00
  0.00000000E+00  0.00000000E+00  0.00000000E+00
  0.00000000E+00  0.00000000E+00  0.00000000E+00
  0.00000000E+00  0.00000000E+00  0.00000000E+00
  0.00000000E+00  0.00000000E+00  0.00000000E+00
  0.00000000E+00  0.00000000E+00  0.00000000E+00
  0.00000000E+00  0.00000000E+00  0.00000000E+00
  0.00000000E+00  0.00000000E+00  0.00000000E+00
  0.00000000E+00  0.00000000E+00  0.00000000E+00
  0.00000000E+00  0.00000000E+00  0.00000000E+00
  0.00000000E+00  0.00000000E+00  0.00000000E+00
  0.00000000E+00  0.00000000E+00  0.00000000E+00
  0.00000000E+00  0.00000000E+00  0.00000000E+00
  0.00000000E+00  0.00000000E+00  0.00000000E+00
  0.00000000E+00  0.00000000E+00  0.00000000E+00
  0.00000000E+00  0.00000000E+00  0.00000000E+00
  0.00000000E+00  0.00000000E+00  0.00000000E+00
  0.00000000E+00  0.00000000E+00  0.00000000E+00
  0.00000000E+00  0.00000000E+00  0.00000000E+00
  0.00000000E+00  0.00000000E+00  0.00000000E+00
  0.00000000E+00  0.00000000E+00  0.00000000E+00
  0.00000000E+00  0.00000000E+00  0.00000000E+00
  0.00000000E+00  0.00000000E+00  0.00000000E+00
  0.00000000E+00  0.00000000E+00  0.00000000E+00
  0.00000000E+00  0.00000000E+00  0.00000000E+00
  0.00000000E+00  0.00000000E+00  0.00000000E+00
  0.00000000E+00  0.00000000E+00  0.00000000E+00
  0.00000000E+00  0.00000000E+00  0.00000000E+00
  0.00000000E+00  0.00000000E+00  0.00000000E+00
  0.00000000E+00  0.00000000E+00  0.00000000E+00
  0.00000000E+00  0.00000000E+00  0.00000000E+00
  0.00000000E+00  0.00000000E+00  0.00000000E+00
  0.00000000E+00  0.00000000E+00  0.00000000E+00
  0.00000000E+00  0.00000000E+00  0.00000000E+00
  0.00000000E+00  0.00000000E+00  0.00000000E+00
  0.00000000E+00  0.00000000E+00  0.00000000E+00
