00                                      
   1.00000000000000     
     9.2947998047000002    0.0000000000000000    0.0000000000000000
     0.0000000000000000    9.2947998047000002    0.0000000000000000
     0.0000000000000000    0.0000000000000000   21.9710998535000002
   Hf   C    O 
    32    32     1
Selective dynamics
Direct
  0.0021021704319466  0.9996823732756706  0.3123634230184832   T   T   T
  0.2502534319437278  0.2480753874879843  0.3123773674716823   T   T   T
  0.0000000000000000  0.2500000000000000  0.0000000000000000   F   F   F
  0.2500000000000000  0.0000000000000000  0.0000000000000000   F   F   F
  0.0000000000000000  0.0000000000000000  0.1057599999999967   F   F   F
  0.2500000000000000  0.2500000000000000  0.1057599999999967   F   F   F
 -0.0011679213034840  0.2510994146473293  0.2105054359927130   T   T   T
  0.2498443773733161  0.0002576290052396  0.2096063778977858   T   T   T
  0.4979970267833839  1.0000209785018175  0.3122345184379884   T   T   T
  0.7508743789635228  0.2427025947818018  0.3152914688067562   T   T   T
  0.5000000000000000  0.2500000000000000  0.0000000000000000   F   F   F
  0.7500000000000000  0.0000000000000000  0.0000000000000000   F   F   F
  0.5000000000000000  0.0000000000000000  0.1057599999999967   F   F   F
  0.7500000000000000  0.2500000000000000  0.1057599999999967   F   F   F
  0.5007526852426283  0.2509409168557902  0.2106232120361924   T   T   T
  0.7499444123922239  0.9997586269427066  0.2098843244125051   T   T   T
  0.0065097966208863  0.4991132735731470  0.3155802525941050   T   T   T
  0.2499221036865872  0.7519831343395341  0.3122587983379243   T   T   T
  0.0000000000000000  0.7500000000000000  0.0000000000000000   F   F   F
  0.2500000000000000  0.5000000000000000  0.0000000000000000   F   F   F
  0.0000000000000000  0.5000000000000000  0.1057599999999967   F   F   F
  0.2500000000000000  0.7500000000000000  0.1057599999999967   F   F   F
 -0.0010349642589629  0.7493961512639193  0.2106134683411854   T   T   T
  0.2500817158637137  0.5001856295279830  0.2099329672484740   T   T   T
  0.4916531387260641  0.5001990068774225  0.3165226410961615   T   T   T
  0.7500729393095280  0.7583310561641587  0.3164343550377318   T   T   T
  0.5000000000000000  0.7500000000000000  0.0000000000000000   F   F   F
  0.7500000000000000  0.5000000000000000  0.0000000000000000   F   F   F
  0.5000000000000000  0.5000000000000000  0.1057599999999967   F   F   F
  0.7500000000000000  0.7500000000000000  0.1057599999999967   F   F   F
  0.5011074588248181  0.7490359190579863  0.2108207169139865   T   T   T
  0.7489714178298634  0.5009788791291115  0.2070807840971015   T   T   T
  0.2500000000000000  0.2500000000000000  0.0000000000000000   F   F   F
  0.0000000000000000  0.0000000000000000  0.0000000000000000   F   F   F
  0.2498125385575566  0.0004170162147372  0.3167898159577150   T   T   T
 -0.0001238552402207  0.2501998343205414  0.3169917718571911   T   T   T
  0.2503044479016375  0.2504140790626776  0.2115138270523176   T   T   T
 -0.0003081595593840  0.9997943598038294  0.2115062042436377   T   T   T
  0.2500000000000000  0.0000000000000000  0.1057599999999967   F   F   F
  0.0000000000000000  0.2500000000000000  0.1057599999999967   F   F   F
  0.7500000000000000  0.2500000000000000  0.0000000000000000   F   F   F
  0.5000000000000000  0.0000000000000000  0.0000000000000000   F   F   F
  0.7501859077840581  0.9992375934518342  0.3175241067754223   T   T   T
  0.5007921478920159  0.2515121902723468  0.3176861998535261   T   T   T
  0.7500935217362341  0.2517170405019372  0.2128398730653371   T   T   T
  0.5002503977391299  0.0004028503736462  0.2113277505609436   T   T   T
  0.7500000000000000  0.0000000000000000  0.1057599999999967   F   F   F
  0.5000000000000000  0.2500000000000000  0.1057599999999967   F   F   F
  0.2500000000000000  0.7500000000000000  0.0000000000000000   F   F   F
  0.0000000000000000  0.5000000000000000  0.0000000000000000   F   F   F
  0.2511598339051465  0.5001661585156140  0.3175657541904021   T   T   T
  0.9987836444335961  0.7498342815547460  0.3176877295981201   T   T   T
  0.2496801367064963  0.7498125354286694  0.2113830395477674   T   T   T
  0.9980706439322660  0.5000246448764255  0.2128661692102461   T   T   T
  0.2500000000000000  0.5000000000000000  0.1057599999999967   F   F   F
  0.0000000000000000  0.7500000000000000  0.1057599999999967   F   F   F
  0.7500000000000000  0.7500000000000000  0.0000000000000000   F   F   F
  0.5000000000000000  0.5000000000000000  0.0000000000000000   F   F   F
  0.7600331354996136  0.4945311143830456  0.3630032591328797   T   T   T
  0.4982379305053490  0.7521190279940326  0.3163402657736911   T   T   T
  0.7499945779918851  0.7490584681231284  0.2128303484455453   T   T   T
  0.5011426564348461  0.5001227176881456  0.2127754179650697   T   T   T
  0.7500000000000000  0.5000000000000000  0.1057599999999967   F   F   F
  0.5000000000000000  0.7500000000000000  0.1057599999999967   F   F   F
  0.6845580211000376  0.5639140140325001  0.4017034229242213   T   T   T
 
             NaN             NaN             NaN
             NaN             NaN             NaN
             NaN             NaN             NaN
             NaN             NaN             NaN
             NaN             NaN             NaN
             NaN             NaN             NaN
             NaN             NaN             NaN
             NaN             NaN             NaN
             NaN             NaN             NaN
             NaN             NaN             NaN
             NaN             NaN             NaN
             NaN             NaN             NaN
             NaN             NaN             NaN
             NaN             NaN             NaN
             NaN             NaN             NaN
             NaN             NaN             NaN
             NaN             NaN             NaN
             NaN             NaN             NaN
             NaN             NaN             NaN
             NaN             NaN             NaN
             NaN             NaN             NaN
             NaN             NaN             NaN
             NaN             NaN             NaN
             NaN             NaN             NaN
             NaN             NaN             NaN
             NaN             NaN             NaN
             NaN             NaN             NaN
             NaN             NaN             NaN
             NaN             NaN             NaN
             NaN             NaN             NaN
             NaN             NaN             NaN
             NaN             NaN             NaN
             NaN             NaN             NaN
             NaN             NaN             NaN
             NaN             NaN             NaN
             NaN             NaN             NaN
             NaN             NaN             NaN
             NaN             NaN             NaN
             NaN             NaN             NaN
             NaN             NaN             NaN
             NaN             NaN             NaN
             NaN             NaN             NaN
             NaN             NaN             NaN
             NaN             NaN             NaN
             NaN             NaN             NaN
             NaN             NaN             NaN
             NaN             NaN             NaN
             NaN             NaN             NaN
             NaN             NaN             NaN
             NaN             NaN             NaN
             NaN             NaN             NaN
             NaN             NaN             NaN
             NaN             NaN             NaN
             NaN             NaN             NaN
             NaN             NaN             NaN
             NaN             NaN             NaN
             NaN             NaN             NaN
             NaN             NaN             NaN
             NaN             NaN             NaN
             NaN             NaN             NaN
             NaN             NaN             NaN
             NaN             NaN             NaN
             NaN             NaN             NaN
             NaN             NaN             NaN
             NaN             NaN             NaN
