Gamma-only (toy model)
0
Gamma
 1 1 1
 0 0 0
