Li   Nb   Mo   O                        
   1.00000000000000     
    22.7851428986000002    0.0000000000000000    0.0000000000000000
     0.0000000000000000    3.8768503666000003    0.0000000000000000
    -9.9730516296000005    0.0000024128000000   15.1282481845000003
   Li   Nb   Mo   O 
     1    24     2    66
Direct
  0.3554567852418880  0.5400430789227137  0.6088008517028027
  0.3671358747741340  0.0072954449812396  0.0463285176593582
  0.6340461490529516  0.0158556198081620  0.9549776576237742
  0.8659371575170652  0.5103710692545355  0.0459400188616904
  0.1306563901553384  0.5101084725136055  0.9556855239636175
  0.2487163163078550  0.0049194997964906  0.1373582189027784
  0.7519925168488468  0.0048797957302386  0.8619307134508324
  0.7478823287878046  0.5067122976448186  0.1379651957983464
  0.2488503622233964  0.5021014568580768  0.8653579885095325
  0.1284005923562408  1.0016861724821147  0.2288275328817229
  0.8685536161668033  0.9995241848796212  0.7674300677372923
  0.6311639034877108  0.5001048132096320  0.2325597291821320
  0.3686997169469947  0.5017107145912568  0.7744212303114351
  0.4185328984164736  0.9721088475205282  0.3797386943380748
  0.5835428206194369  0.9712387138926410  0.6179790971416842
  0.9173500535498841  0.4661634559207625  0.3818324258526857
  0.0811620593690762  0.4649615432911817  0.6211099827028751
  0.2942916633158807  0.0251000187919530  0.4650250564505442
  0.7020455131752837  0.0042335026305153  0.5264642024131888
  0.7980632697390415  0.5037596699069786  0.4727184923086169
  0.1987135343423399  0.5137453616940773  0.5271716015567304
  0.4673249387407431  0.0207020441131663  0.7157616230159281
  0.5366186681877770  0.0037791314018495  0.2873103845456420
  0.9626653038231727  0.5023956462133877  0.7126407898991739
  0.0346207203926255  0.5051571219727174  0.2870292696832580
  0.9986771833769471  0.2533109206913070  1.0002473671492071
  0.5003748023447434  0.7570115022833175  0.0007065921936174
 -0.0007822807811636  0.4889295383375011  0.5011805783503684
  0.4998921261306873  0.9946766990145655  0.4998659896463160
  0.1478740648543200  0.0052729190150299  0.9920869973627199
  0.8498275240137675  0.0063299047103464  0.0090467247142006
  0.6486685642875288  0.5097638650031769  0.9901133886353357
  0.3503694816622976  0.5034589873841575  0.0100745997243583
  0.3031591873063401  0.0024907554696549  0.0822531091477683
  0.6954021269474149  0.0063728945804638  0.9171418336540205
  0.8025543134045580  0.5061494492434648  0.0814106089840951
  0.1953285807579273  0.5015705652067933  0.9204520876651414
  0.0330159551072632  1.0021578575783734  0.0993555770696535
  0.9654532701450027  0.0013236701970539  0.9025653260689721
  0.5342698405649370  0.5024938644383491  0.0982032872702421
  0.4662312306714079  0.5053473749464479  0.9015924368917482
  0.4496515495704343  0.0039745128356163  0.1561274008652194
  0.5491923320012311  0.0199631665449124  0.8438561203295800
  0.9491646873456567  0.5075561104687097  0.1561049052756188
  0.0491789258545984  0.5058975864239255  0.8454053305579877
  0.1795278025813244  0.0026503481847306  0.1780420828854261
  0.8199510853518972  0.0045273585950890  0.8231478103235935
  0.6796554247847417  0.5058952515064824  0.1768511356645539
  0.3189039282897826  0.4992732997151448  0.8259975712010481
  0.0486022636056672  0.0063655223224257  0.2704444486377103
  0.9498755156236083  0.0025587293538244  0.7306726114933160
  0.5498073452538109  0.5030766788523178  0.2698060785712749
  0.4470974878249083  0.5201774700524040  0.7245161714846349
  0.3251563015775138  1.0027126197254688  0.2500863303855340
  0.6745981879941084  1.0017198522757524  0.7498912930501965
  0.8251140249051355  0.5000943079281935  0.2497464233332619
  0.1737938049430498  0.4982911259387061  0.7515816223442453
  0.4764315442383507  1.0030051404099143  0.3266319873665146
  0.5236068544266014  1.0096161778115813  0.6729236822937704
  0.9763048480961015  0.5001303425316143  0.3278270310740726
  0.0238299855909395  0.4986378392571379  0.6750200517063866
  0.2058922222936077  0.0171439091099004  0.3490733419015075
  0.7925417341707244  0.0023583783672021  0.6513369712349103
  0.7073152316289555  0.5029252123896170  0.3488511308076981
  0.2947907846077866  0.5151948005854586  0.6531180895590851
  0.3522225522018935  0.0141763788992480  0.4243604901920864
  0.6474608575129254  1.0017683330716283  0.5741398385892380
  0.8521965197690153  0.4998428887090773  0.4252295208650214
  0.1461005192086011  0.5038924164555615  0.5753561293452653
  0.2209231380469545  0.0164986067291641  0.5207826960308446
  0.7785698923091348  0.0034575569245902  0.4813635002245349
  0.7216774161755924  0.5034447275848062  0.5187838076951616
  0.2813399635869262  0.5235025400172317  0.4843206880081793
  0.3761764014001075  0.0273446273044713  0.5966969000295134
  0.6219424387958447  0.0031145958871022  0.4040302551388717
  0.8781968209374584  0.5033500040152120  0.5961282354110155
  0.1219223956859841  0.5120663292755007  0.4046188390037264
  0.0900509689022646  0.9917253228803433  0.6321896210706429
  0.9097766981586104  0.9924343662906664  0.3686248885734136
  0.5894633622146691  0.4970377213158063  0.6312214977863955
  0.4095603088309858  0.4982162111664555  0.3689245994210772
  0.3936322660310508  0.0104977138938906  0.7713149912054187
  0.6056893073992167  0.0025302305801648  0.2316932100415448
  0.8940246276989806  0.5017725847894033  0.7686332641872687
  0.1058473809219034  0.5059974805769188  0.2322542144457314
  0.2742821585907917  0.0020280659266262  0.8981258518809722
  0.7235940338786022  0.0076647823609238  0.1022367624024393
  0.7750445182009970  0.5055195740947254  0.8966178288646575
  0.2238202276915145  0.5043928485084169  0.1044955852718672
  0.4285361639575175  0.0050687018389605  0.9875189300894216
  0.5713979121725988  0.0075009427407929  0.0133108442079427
  0.9274930604586514  0.5053595700805682  0.9866293323057728
  0.0704256932977324  0.5060894365134562  0.0146117431921064
 
  0.00000000E+00  0.00000000E+00  0.00000000E+00
  0.00000000E+00  0.00000000E+00  0.00000000E+00
  0.00000000E+00  0.00000000E+00  0.00000000E+00
  0.00000000E+00  0.00000000E+00  0.00000000E+00
  0.00000000E+00  0.00000000E+00  0.00000000E+00
  0.00000000E+00  0.00000000E+00  0.00000000E+00
  0.00000000E+00  0.00000000E+00  0.00000000E+00
  0.00000000E+00  0.00000000E+00  0.00000000E+00
  0.00000000E+00  0.00000000E+00  0.00000000E+00
  0.00000000E+00  0.00000000E+00  0.00000000E+00
  0.00000000E+00  0.00000000E+00  0.00000000E+00
  0.00000000E+00  0.00000000E+00  0.00000000E+00
  0.00000000E+00  0.00000000E+00  0.00000000E+00
  0.00000000E+00  0.00000000E+00  0.00000000E+00
  0.00000000E+00  0.00000000E+00  0.00000000E+00
  0.00000000E+00  0.00000000E+00  0.00000000E+00
  0.00000000E+00  0.00000000E+00  0.00000000E+00
  0.00000000E+00  0.00000000E+00  0.00000000E+00
  0.00000000E+00  0.00000000E+00  0.00000000E+00
  0.00000000E+00  0.00000000E+00  0.00000000E+00
  0.00000000E+00  0.00000000E+00  0.00000000E+00
  0.00000000E+00  0.00000000E+00  0.00000000E+00
  0.00000000E+00  0.00000000E+00  0.00000000E+00
  0.00000000E+00  0.00000000E+00  0.00000000E+00
  0.00000000E+00  0.00000000E+00  0.00000000E+00
  0.00000000E+00  0.00000000E+00  0.00000000E+00
  0.00000000E+00  0.00000000E+00  0.00000000E+00
  0.00000000E+00  0.00000000E+00  0.00000000E+00
  0.00000000E+00  0.00000000E+00  0.00000000E+00
  0.00000000E+00  0.00000000E+00  0.00000000E+00
  0.00000000E+00  0.00000000E+00  0.00000000E+00
  0.00000000E+00  0.00000000E+00  0.00000000E+00
  0.00000000E+00  0.00000000E+00  0.00000000E+00
  0.00000000E+00  0.00000000E+00  0.00000000E+00
  0.00000000E+00  0.00000000E+00  0.00000000E+00
  0.00000000E+00  0.00000000E+00  0.00000000E+00
  0.00000000E+00  0.00000000E+00  0.00000000E+00
  0.00000000E+00  0.00000000E+00  0.00000000E+00
  0.00000000E+00  0.00000000E+00  0.00000000E+00
  0.00000000E+00  0.00000000E+00  0.00000000E+00
  0.00000000E+00  0.00000000E+00  0.00000000E+00
  0.00000000E+00  0.00000000E+00  0.00000000E+00
  0.00000000E+00  0.00000000E+00  0.00000000E+00
  0.00000000E+00  0.00000000E+00  0.00000000E+00
  0.00000000E+00  0.00000000E+00  0.00000000E+00
  0.00000000E+00  0.00000000E+00  0.00000000E+00
  0.00000000E+00  0.00000000E+00  0.00000000E+00
  0.00000000E+00  0.00000000E+00  0.00000000E+00
  0.00000000E+00  0.00000000E+00  0.00000000E+00
  0.00000000E+00  0.00000000E+00  0.00000000E+00
  0.00000000E+00  0.00000000E+00  0.00000000E+00
  0.00000000E+00  0.00000000E+00  0.00000000E+00
  0.00000000E+00  0.00000000E+00  0.00000000E+00
  0.00000000E+00  0.00000000E+00  0.00000000E+00
  0.00000000E+00  0.00000000E+00  0.00000000E+00
  0.00000000E+00  0.00000000E+00  0.00000000E+00
  0.00000000E+00  0.00000000E+00  0.00000000E+00
  0.00000000E+00  0.00000000E+00  0.00000000E+00
  0.00000000E+00  0.00000000E+00  0.00000000E+00
  0.00000000E+00  0.00000000E+00  0.00000000E+00
  0.00000000E+00  0.00000000E+00  0.00000000E+00
  0.00000000E+00  0.00000000E+00  0.00000000E+00
  0.00000000E+00  0.00000000E+00  0.00000000E+00
  0.00000000E+00  0.00000000E+00  0.00000000E+00
  0.00000000E+00  0.00000000E+00  0.00000000E+00
  0.00000000E+00  0.00000000E+00  0.00000000E+00
  0.00000000E+00  0.00000000E+00  0.00000000E+00
  0.00000000E+00  0.00000000E+00  0.00000000E+00
  0.00000000E+00  0.00000000E+00  0.00000000E+00
  0.00000000E+00  0.00000000E+00  0.00000000E+00
  0.00000000E+00  0.00000000E+00  0.00000000E+00
  0.00000000E+00  0.00000000E+00  0.00000000E+00
  0.00000000E+00  0.00000000E+00  0.00000000E+00
  0.00000000E+00  0.00000000E+00  0.00000000E+00
  0.00000000E+00  0.00000000E+00  0.00000000E+00
  0.00000000E+00  0.00000000E+00  0.00000000E+00
  0.00000000E+00  0.00000000E+00  0.00000000E+00
  0.00000000E+00  0.00000000E+00  0.00000000E+00
  0.00000000E+00  0.00000000E+00  0.00000000E+00
  0.00000000E+00  0.00000000E+00  0.00000000E+00
  0.00000000E+00  0.00000000E+00  0.00000000E+00
  0.00000000E+00  0.00000000E+00  0.00000000E+00
  0.00000000E+00  0.00000000E+00  0.00000000E+00
  0.00000000E+00  0.00000000E+00  0.00000000E+00
  0.00000000E+00  0.00000000E+00  0.00000000E+00
  0.00000000E+00  0.00000000E+00  0.00000000E+00
  0.00000000E+00  0.00000000E+00  0.00000000E+00
  0.00000000E+00  0.00000000E+00  0.00000000E+00
  0.00000000E+00  0.00000000E+00  0.00000000E+00
  0.00000000E+00  0.00000000E+00  0.00000000E+00
  0.00000000E+00  0.00000000E+00  0.00000000E+00
  0.00000000E+00  0.00000000E+00  0.00000000E+00
  0.00000000E+00  0.00000000E+00  0.00000000E+00
