Li   F 
    1.000000000000000     
  12.0789003372000003   0.0000000000000000   0.0000000000000000
   0.0000000000000000  12.0789003372000003   0.0000000000000000
   0.0000000000000000   0.0000000000000000  12.0789003372000003
Li   F 
108  107  
Direct
  0.9983946756699495  0.0019545505229885  0.0000001769005422  
  0.9996284456225837  0.0001923364219323  0.3335193878020704  
  0.9996277804395888  0.0001916592965472  0.6664807252891549  
  0.9983810548415590  0.3314236941180013  0.9999998556004499  
  0.9996173928849643  0.3331710507317496  0.3335278632202687  
  0.9996171161730345  0.3331705783274046  0.6664720695007347  
  0.9830877143332089  0.6666438715888603  0.9999999064433354  
  0.9983610397188301  0.6666385714858905  0.3352519573961388  
  0.9983581379039705  0.6666380596408032  0.6647483858638807  
  0.3349658366392561  0.0019710387493106  0.0000001838863284  
  0.3337254115039912  0.0001949361263698  0.3335311614023837  
  0.3337249215448637  0.0001915779856319  0.6664691939947147  
  0.3349573608830312  0.3314388080096791  0.9999994778909027  
  0.3337293346963648  0.3331796975842565  0.3335368258864122  
  0.3337288010152051  0.3331794341124379  0.6664637337116375  
  0.3501207679751275  0.6666585199410520  0.0000001500796429  
  0.3349307739673080  0.6666358231892247  0.3352439103448503  
  0.3349301798422815  0.6666353146875892  0.6647566913996243  
  0.6666833426158618  0.0004001967259981  0.9999999211141457  
  0.6666607017632131  0.0001650654305507  0.3334998726278045  
  0.6666602044764289  0.0001648065426920  0.6664999582016975  
  0.6666648226892633  0.3329630248471531  0.9999998192356969  
  0.6666498933903497  0.3332021053204883  0.3335096870289860  
  0.6666490372084795  0.3332012786735206  0.6664901336030837  
  0.6666566928633131  0.6666505882211951  0.0000005797240945  
  0.6666481483484930  0.6666452240209182  0.3337383010516746  
  0.6666479018296130  0.6666447054438365  0.6662611068945097  
  0.9997886753209357  0.1666585280304957  0.1668639396219120  
  0.9998171242541289  0.1666673233706248  0.5000000974213066  
  0.9997887059816151  0.1666582076032626  0.8331355691429110  
  0.9997812999979132  0.4997804796957794  0.1668619609294240  
  0.9997816296781963  0.4997809660645416  0.5000000804520965  
  0.9997798970241689  0.4997801215932753  0.8331380983236443  
  0.9997945652807800  0.8335606805480609  0.1668464094912068  
  0.9997807897009920  0.8335610965594995  0.5000000126476678  
  0.9997931201511889  0.8335604482210144  0.8331540523051899  
  0.3335840084041521  0.1666529992059083  0.1668607672461633  
  0.3335295043115352  0.1666569527786379  0.5000007139794604  
  0.3335839498012589  0.1666514167840276  0.8331384350947886  
  0.3335627498314011  0.4997799138232182  0.1668470149872405  
  0.3335616490744187  0.4997797603965566  0.5000004223730130  
  0.3335621352319862  0.4997801282030707  0.8331531609739855  
  0.3335725667373524  0.8335639882624690  0.1668462586988468  
  0.3335670047030135  0.8335658681120606  0.4999998514572397  
  0.3335719070405290  0.8335622361811801  0.8331546530632110  
  0.6666556750686325  0.1666463815165429  0.1668182345912754  
  0.6666561238748017  0.1666536888092622  0.4999999878720018  
  0.6666553994328481  0.1666460846726565  0.8331815019148223  
  0.6666605283187863  0.4997760083740701  0.1668633990895572  
  0.6666679923729220  0.4998180248941537  0.4999997410820853  
  0.6666599314507025  0.4997755460791709  0.8331365217442652  
  0.6666561938453199  0.8335793417032491  0.1668571279887630  
  0.6666560186507766  0.8335290660190040  0.4999996130273914  
  0.6666557818108387  0.8335792352829401  0.8331429875321419  
  0.1666651165998303  0.0019680472395365  0.1682514765940937  
  0.1666598498635068  0.0003935758797340  0.5000002231040170  
  0.1666648215301478  0.0019666745920119  0.8317488033542801  
  0.1666647029466475  0.3314248416050418  0.1682566412255611  
  0.1666535880412283  0.3329666442946149  0.5000004515060894  
  0.1666645290731523  0.3314242630986541  0.8317430608300640  
  0.1666420351357161  0.6666372636983695  0.1833636880265672  
  0.1666513540918189  0.6666495635309673  0.5000002315542034  
  0.1666399645973584  0.6666365990844270  0.8166363559113350  
  0.5001986802464131  0.0001928714153863  0.1670253667564126  
  0.5001667723805312  0.0001622255300120  0.5000000447393944  
  0.5001983453715511  0.0001914713865077  0.8329747329424961  
  0.5001992680162672  0.3331684962409298  0.1670206066051421  
  0.5001656881157430  0.3331846481032343  0.5000002562363548  
  0.5001987950347200  0.3331679861392871  0.8329790283174034  
  0.5019703138076750  0.6666492852978223  0.1682467311105782  
  0.5003927610028001  0.6666585238300229  0.4999998893342692  
  0.5019705017502076  0.6666487492566233  0.8317539113488621  
  0.8331846140263792  0.0001951108170459  0.1670165413420222  
  0.8331860291303741  0.0001644741786748  0.4999998313005563  
  0.8331843583119536  0.0001951730504501  0.8329834225574757  
  0.8331735335702959  0.3331685689995894  0.1670149798757166  
  0.8331936354444451  0.3331930695472138  0.4999998728862565  
  0.8331732407428802  0.3331683448124281  0.8329846832380952  
  0.8314262021867052  0.6666640788114719  0.1682554024558485  
  0.8329666321805291  0.6666549661727501  0.4999993857491134  
  0.8314246426883187  0.6666639574947553  0.8317450880886170  
  0.1666629468214822  0.1666532581346871  0.9999997192526422  
  0.1666463314880886  0.1666494995868888  0.3337411245711408  
  0.1666464332368136  0.1666480426280259  0.6662590793839271  
  0.1666453906291352  0.4830836776467748  0.9999997058141190  
  0.1666392495963080  0.4983585389343546  0.3352527209774436  
  0.1666379246824405  0.4983585463537565  0.6647478849677952  
  0.1666819759988130  0.8501131557147446  0.0000001583958138  
  0.1666403467431792  0.8349298872086095  0.3352452184847152  
  0.1666386993503153  0.8349282093894459  0.6647551274062948  
  0.5004076934073822  0.1666719139027109  0.9999996183443400  
  0.5001693152109610  0.1666558909019997  0.3335038491019873  
  0.5001683850611585  0.1666544545225079  0.6664963002750142  
  0.5019612218956411  0.4983649093830564  0.0000001909021279  
  0.5001929616934433  0.4996229184825580  0.3335193542625845  
  0.5001925192783645  0.4996226070395977  0.6664808201022936  
  0.5019746587045830  0.8349536973633533  0.0000004732978383  
  0.5001942255500396  0.8337206953032137  0.3335273614361398  
  0.5001942641951516  0.8337192938280324  0.6664726607405385  
  0.8329838380272463  0.1666532494496522  0.9999998177656551  
  0.8332047346249354  0.1666468498661473  0.3335081715024799  
  0.8332044900143671  0.1666466524113872  0.6664916193671857  
  0.8314261990093783  0.4983751378983996  0.0000001627859660  
  0.8331719105361941  0.4996190049475899  0.3335269803089815  
  0.8331705437410903  0.4996181565745346  0.6664726714842431  
  0.8314499730671301  0.8349553380818477  0.0000003130722845  
  0.8331824920962632  0.8337288909582199  0.3335337798376727  
  0.8331811619340854  0.8337289232795086  0.6664658609301810  
  0.9995812883796162  0.1666808863398970  0.9999997577373634  
  0.0002497760843596  0.1666753264264571  0.3329800659783402  
  0.0002497844627172  0.1666747924678162  0.6670198526012712  
  0.0042691499825267  0.5042678378426828  0.9999998035816091  
  0.0008128206904772  0.5008120757597823  0.3323695920891083  
  0.0008113109065775  0.5008115931258388  0.6676303396835834  
  0.0042802371508799  0.8290600822588274  0.9999999570656826  
  0.0008195323266733  0.8324984843513832  0.3323701837003910  
  0.0008177440013313  0.8324979403511605  0.6676298230428444  
  0.3337821618067807  0.1666781585890931  0.9999994763847653  
  0.3330949609003966  0.1666727278051070  0.3329873802247150  
  0.3330945948116764  0.1666710584732627  0.6670129756538188  
  0.3290664683525364  0.5042586035087453  0.9999996969246752  
  0.3324991447460874  0.5008141592684936  0.3323705740544227  
  0.3324985052000002  0.5008143261202633  0.6676297662102115  
  0.3290880272454970  0.8290742576969024  0.0000000616607565  
  0.3325065111840857  0.8325031464806898  0.3323766705443063  
  0.3325058730755970  0.8325014403841777  0.6676234982943470  
  0.6666866431675942  0.1666732137530786  0.9999999129488231  
  0.6666730743932163  0.1666683542739733  0.3331642574061178  
  0.6666724202879024  0.1666678333741558  0.6668356266826407  
  0.6666855604832946  0.4995634439928480  0.0000000809877037  
  0.6666761791022964  0.5002473935038765  0.3329795189171421  
  0.6666755116154022  0.5002466775130898  0.6670201663381263  
  0.6666842807705962  0.8337759174485555  0.0000002141391775  
  0.6666735934650134  0.8330921972938228  0.3329836670363591  
  0.6666732478814694  0.8330919354947213  0.6670159542278284  
  0.0008441104143984  0.9990573988218330  0.1658279012952235  
  0.0002381692645841  0.9996687274960507  0.5000000025112996  
  0.0008436841535655  0.9990570019154248  0.8341720599563871  
  0.0008353098808769  0.3342872252980627  0.1658286787318204  
  0.0002457987553086  0.3336799791220173  0.5000000364982924  
  0.0008349988246081  0.3342868894742779  0.8341709753004025  
  0.0042640589241216  0.6666594978070748  0.1623686183697757  
  0.9995657525662267  0.6666673641732856  0.4999999869251042  
  0.0042616705088747  0.6666591389471037  0.8376308836350788  
  0.3325199236640586  0.9990606358722260  0.1658306281386288  
  0.3330852581992048  0.9996621699921064  0.5000001334827076  
  0.3325195738114886  0.9990588243315273  0.8341694366453538  
  0.3325194226631325  0.3342852773046658  0.1658314717589349  
  0.3330898052960549  0.3336838168371017  0.5000004587217788  
  0.3325191027366898  0.3342849068128473  0.8341679558934914  
  0.3290675731343313  0.6666573976961843  0.1623704379418598  
  0.3337683383561512  0.6666598883108463  0.5000001335498041  
  0.3290666647236904  0.6666569240994988  0.8376297575335201  
  0.6666845633951723  0.9996593809374872  0.1664117359781088  
  0.6666812351261484  0.9998377589365148  0.4999998545569611  
  0.6666842540591489  0.9996591148844090  0.8335882334759148  
  0.6666738490351918  0.3336838436378855  0.1664116532205782  
  0.6666742630843601  0.3335024284290995  0.4999999366555130  
  0.6666733965848550  0.3336834010028511  0.8335881273804375  
  0.6666745232389744  0.6666650816138358  0.1670950356600187  
  0.6666725505271955  0.6666659671580248  0.4999995298433717  
  0.6666740579289865  0.6666647661896761  0.8329053029077258  
  0.1666732648197495  0.1666729331943415  0.1670974512082353  
  0.1666657236230478  0.1666736346794906  0.5000003322115987  
  0.1666732662768879  0.1666720087913589  0.8329020434203116  
  0.1666610450355392  0.5042590997213452  0.1623678247589808  
  0.1666678495132814  0.4995647417702003  0.5000002458202246  
  0.1666599507245365  0.5042589783718299  0.8376317868865826  
  0.1666711974344537  0.8290632190664198  0.1623735161849638  
  0.1666620785433608  0.8337671055136298  0.5000000478845905  
  0.1666699808754402  0.8290619696307218  0.8376267516430289  
  0.4996650930416493  0.1666754713328373  0.1664148921974444  
  0.4998406674623723  0.1666777129620698  0.5000002007520479  
  0.4996647603544133  0.1666745043881619  0.8335847347711791  
  0.4990607702793710  0.5008258439528461  0.1658276345429215  
  0.4996691601263592  0.5002371846853464  0.5000000307236689  
  0.4990604337007554  0.5008256382775969  0.8341723755965447  
  0.4990647196198807  0.8325106535259792  0.1658277848878669  
  0.4996630900340975  0.8330815334249380  0.4999998281287574  
  0.4990645816145829  0.8325097083276205  0.8341725701875049  
  0.8336960169653054  0.1666676609602931  0.1664102407682790  
  0.8335036686749149  0.1666724444279311  0.4999999220971318  
  0.8336958505444869  0.1666675327519087  0.8335895098776689  
  0.8342890201293329  0.5008320311168362  0.1658281311571130  
  0.8336804840913032  0.5002469175454394  0.4999997309863389  
  0.8342879765521332  0.5008316066996272  0.8341719024640639  
  0.8342949237465973  0.8325175718817590  0.1658287118100858  
  0.8336842293094051  0.8330898498893760  0.4999996564805542  
  0.8342938787668359  0.8325176156428284  0.8341715461259440  
  0.1666817052884610  0.0031829328264976  0.9999999236714316  
  0.1666700049527563  0.9992595360319925  0.3325888281348384  
  0.1666694190591400  0.9992577176640793  0.6674113761686726  
  0.1666749698624628  0.3301289942978940  0.9999996406447949  
  0.1666635784833304  0.3340786733342824  0.3325915283462351  
  0.1666632709137303  0.3340784146991638  0.6674086114681756  
  0.1666531748122893  0.6666498986076022  0.3364710391317161  
  0.1666513550522737  0.6666493814577734  0.6635292387102325  
  0.4992853661279568  0.9992786536122011  0.0000000051310920  
  0.4996896506388921  0.9996852176691817  0.3329978057743475  
  0.4996892244528368  0.9996837282003241  0.6670022238926947  
  0.4992644923099689  0.3340809924517671  0.9999997180007654  
  0.4996852655571473  0.3336598096683971  0.3330066266649041  
  0.4996845571514754  0.3336592158131495  0.6669935067540251  
  0.5031889799572795  0.6666606098152172  0.0000002432906001  
  0.4992586444877958  0.6666641592720381  0.3325844617128126  
  0.4992587199794656  0.6666636108566451  0.6674155003625089  
  0.8341039092519935  0.9992580963338185  0.0000000236947812  
  0.8336652378391491  0.9996827621086126  0.3330030829755657  
  0.8336646849434928  0.9996828089425662  0.6669967135466592  
  0.8340882748278275  0.3340790955633963  0.9999998656748801  
  0.8336606585793618  0.3336593791852920  0.3330091754588835  
  0.8336601205107428  0.3336587340294557  0.6669906003099300  
  0.8301325852780224  0.6666723147855933  0.0000003892318787  
  0.8340799149326585  0.6666642162461756  0.3325898984714897  
  0.8340780704361848  0.6666637931173014  0.6674095612770472  
