Ni   S                                  
   1.00000000000000     
    20.0000000000000000    0.0000000000000000    0.0000000000000000
     0.0000000000000000   20.0000000000000000    0.0000000000000000
     0.0000000000000000    0.0000000000000000   20.0000000000000000
   Ni   S 
    55     1
Direct
  0.3506954530658841  0.5949121812057028  0.4111927167009702
  0.4509041978357723  0.6630585962691203  0.3776221525544683
  0.4126809225196305  0.6618666711503136  0.4975835937674656
  0.5130423554612856  0.7225215154634491  0.4640242434603638
  0.5146293871670138  0.6078404438033238  0.4633536394110396
  0.5771261152185979  0.6648775078733434  0.3779626539071016
  0.6157554528448709  0.6649722121311044  0.4973151068319326
  0.3179495848481143  0.5912876362817275  0.5287401389417090
  0.3517402969165258  0.4879558997376842  0.5903517278257712
  0.4156235091567961  0.5413342275606882  0.4975421498041806
  0.4141838229161318  0.5974765686735191  0.6040731299295101
  0.5144044770203545  0.6641065597941740  0.5702642641520242
  0.5154743782173864  0.5436222432134113  0.5690984736447123
  0.6153260869717601  0.5443952056360544  0.4958714542171342
  0.6170588551725706  0.5988582888957334  0.6033434788768846
  0.3930207967113101  0.5933076106530158  0.2964820869010732
  0.3519596580384659  0.4891788273681927  0.3445816574516082
  0.4534253330953506  0.4904534362660342  0.2707225551408603
  0.4540999085846114  0.5424794038955331  0.3793687025066306
  0.5150239575932813  0.5981475069245071  0.2915447408530872
  0.5168532143481152  0.4387195546718328  0.3592501401960450
  0.5791475283832870  0.4921571795609013  0.2708045832951935
  0.5773628671183035  0.5441131273539183  0.3793043196040859
  0.3131595841454075  0.4874660184159499  0.4659460750503396
  0.3537222500234944  0.3809234607673130  0.5156353905899683
  0.4172620472781035  0.4373522496047925  0.4313460084167469
  0.4547460052284489  0.4368335419647679  0.5490534767002219
  0.5160125789992065  0.4910204506521001  0.4643715639062317
  0.5173749079410642  0.3737286071429091  0.4642303215199712
  0.6160995969332350  0.4395015411192260  0.4316090341730049
  0.5782925810520315  0.4395329323663852  0.5489740109695631
  0.6793515432782246  0.6001613077793615  0.4110359335451299
  0.7123192019495446  0.5965932195197562  0.5282760087495525
  0.6801001744358012  0.4929409876887869  0.5837270046134241
  0.6370016849357255  0.5963218067524702  0.2967785085138705
  0.6807518663607605  0.4931433044507336  0.3447333795488511
  0.7192346277122602  0.4928623753562413  0.4642151475366710
  0.6812637565299220  0.3855606708504419  0.5171054415423633
  0.4566796904202211  0.4945406732094928  0.6619513654668512
  0.5172484413519330  0.5971168174059007  0.6712066647534165
  0.5794604719470867  0.4918343140418637  0.6576024203008100
  0.3939419697007666  0.3767907889483365  0.6282134663274632
  0.4565229466095559  0.3152989046170721  0.5480546442123323
  0.5178210062583982  0.3828184237816735  0.6360077615976664
  0.5806423678021796  0.3183387265436387  0.5501907049877043
  0.6395421337663090  0.3883031022692041  0.6314474671459780
  0.4163130437701115  0.3826502877122533  0.3239885750517043
  0.5176527608703164  0.3879374118733686  0.2563122875192089
  0.6192096961646526  0.3855587486438699  0.3240467857208820
  0.3203074597344762  0.3851413038897937  0.3987604185804385
  0.4167285780946476  0.3161294048970992  0.4298074703376549
  0.5182368804140277  0.3185285390446442  0.3564505659753538
  0.6201394058193771  0.3194221777309296  0.4303839646775771
  0.7147944325216745  0.3896899787094095  0.3999056632212943
  0.5202080614011816  0.2585308804288599  0.4617832105803144
  0.3807428079435601  0.4410706173082102  0.7075314631601359
 
             NaN             NaN             NaN
             NaN             NaN             NaN
             NaN             NaN             NaN
             NaN             NaN             NaN
             NaN             NaN             NaN
             NaN             NaN             NaN
             NaN             NaN             NaN
             NaN             NaN             NaN
             NaN             NaN             NaN
             NaN             NaN             NaN
             NaN             NaN             NaN
             NaN             NaN             NaN
             NaN             NaN             NaN
             NaN             NaN             NaN
             NaN             NaN             NaN
             NaN             NaN             NaN
             NaN             NaN             NaN
             NaN             NaN             NaN
             NaN             NaN             NaN
             NaN             NaN             NaN
             NaN             NaN             NaN
             NaN             NaN             NaN
             NaN             NaN             NaN
             NaN             NaN             NaN
             NaN             NaN             NaN
             NaN             NaN             NaN
             NaN             NaN             NaN
             NaN             NaN             NaN
             NaN             NaN             NaN
             NaN             NaN             NaN
             NaN             NaN             NaN
             NaN             NaN             NaN
             NaN             NaN             NaN
             NaN             NaN             NaN
             NaN             NaN             NaN
             NaN             NaN             NaN
             NaN             NaN             NaN
             NaN             NaN             NaN
             NaN             NaN             NaN
             NaN             NaN             NaN
             NaN             NaN             NaN
             NaN             NaN             NaN
             NaN             NaN             NaN
             NaN             NaN             NaN
             NaN             NaN             NaN
             NaN             NaN             NaN
             NaN             NaN             NaN
             NaN             NaN             NaN
             NaN             NaN             NaN
             NaN             NaN             NaN
             NaN             NaN             NaN
             NaN             NaN             NaN
             NaN             NaN             NaN
             NaN             NaN             NaN
             NaN             NaN             NaN
             NaN             NaN             NaN
