Ni   S 
   1.00000000000000     
  20.0000000000000000   0.0000000000000000   0.0000000000000000
   0.0000000000000000  20.0000000000000000   0.0000000000000000
   0.0000000000000000   0.0000000000000000  20.0000000000000000
Ni   S 
55  1  
Direct
  0.3502887363727890  0.5958425720175670  0.4104051273524410  
  0.4516523068090450  0.6633391235251980  0.3771179832375400  
  0.4121337782637010  0.6624325611746680  0.4969459538104810  
  0.5131255884024880  0.7232282178278600  0.4643178990897850  
  0.5147728278344270  0.6085220930733970  0.4641969623760080  
  0.5771839577331120  0.6650324718302300  0.3776569723400060  
  0.6160449780497640  0.6653156371451840  0.4969204024559990  
  0.3163151872946910  0.5930181476534671  0.5272370741754030  
  0.3481442005682850  0.4897052677775800  0.5846265720878699  
  0.4148574856686620  0.5419997217219500  0.4969175101697230  
  0.4132281461032510  0.5970441066666010  0.6038154908451649  
  0.5139328510054570  0.6634321695407690  0.5711577094951110  
  0.5149051690632830  0.5428699430492679  0.5701823213562780  
  0.6155765701000320  0.5447666919509830  0.4969367629106360  
  0.6163727077481840  0.5987106726005390  0.6043781794757880  
  0.3926857406142970  0.5936990235217010  0.2955026461128510  
  0.3516495437971440  0.4888871664948410  0.3439426781743650  
  0.4536645981899380  0.4906631553338200  0.2703624833646640  
  0.4535931592828180  0.5429030372897899  0.3788649262867450  
  0.5151575056755110  0.5980701961899020  0.2908755752140520  
  0.5168542641819019  0.4383390097656910  0.3587049592422100  
  0.5792835058151909  0.4922360940346310  0.2705193999379530  
  0.5775545235554280  0.5444957952901530  0.3790909298945450  
  0.3126268056811060  0.4879430151018060  0.4641847310331140  
  0.3533385264947380  0.3810119896760820  0.5169263385954610  
  0.4164867679499120  0.4368121994046630  0.4313124558489530  
  0.4547287445549840  0.4375384286946580  0.5496973164461780  
  0.5159294590213860  0.4907439203139750  0.4644610152531920  
  0.5172266037086640  0.3728290735331750  0.4642992990015030  
  0.6169312532365150  0.4393931753320220  0.4314769158368680  
  0.5788073493499371  0.4385173227078310  0.5493588440468929  
  0.6796767539944920  0.6000349764096670  0.4109546019385990  
  0.7126831832633160  0.5969842005566760  0.5289482432205260  
  0.6808858914414490  0.4922971527366040  0.5837270817529400  
  0.6374905400480561  0.5966578773414570  0.2959452568155000  
  0.6809728473296840  0.4932411791777510  0.3444683197220260  
  0.7195597672915640  0.4933101471088430  0.4641327972521980  
  0.6821812513014510  0.3855340869169130  0.5173933052490090  
  0.4524809497929000  0.4917797848027590  0.6628574259397690  
  0.5156987003228080  0.5957173957961220  0.6725829967613070  
  0.5790417177821110  0.4913147038465550  0.6575369144677340  
  0.3939758447687250  0.3834352582366520  0.6331803430998800  
  0.4551191841563100  0.3161894671174960  0.5499954621075460  
  0.5181354755122030  0.3820451037365090  0.6377288542829480  
  0.5809719593450570  0.3180123590085840  0.5502995012701321  
  0.6402266067310050  0.3876556058278310  0.6321049543629370  
  0.4157655344442260  0.3828129789311350  0.3233507385325610  
  0.5174450833203750  0.3873515755829470  0.2554576753299220  
  0.6195338653535170  0.3860498512863660  0.3234776907323540  
  0.3195378264782600  0.3845597721421610  0.3987727749972190  
  0.4165715966492770  0.3163768723552210  0.4307353937117850  
  0.5184738736065601  0.3182034904167140  0.3564275725305780  
  0.6200288389899740  0.3192235004027920  0.4302000922196920  
  0.7155852459451140  0.3893390793720140  0.3996920599140810  
  0.5197760237636050  0.2579734729040340  0.4624991283072010  
  0.3845986745746830  0.4427914120796220  0.7009206493471610  
