Li   F 
    1.000000000000000     
  12.0789003372000003   0.0000000000000000   0.0000000000000000
   0.0000000000000000  12.0789003372000003   0.0000000000000000
   0.0000000000000000   0.0000000000000000  12.0789003372000003
Li   F 
108  107  
Direct
  0.9986675696052530  0.0019546258695371  0.0002727164906631  
  0.9996913804774080  0.0002271566876146  0.3334875672202240  
  0.9996907220768920  0.0004878093270904  0.6662416943763390  
  0.9986517979641359  0.3314237548087820  0.0002706343167702  
  0.9996810522469840  0.3331371134713880  0.3334967870525890  
  0.9996807806740260  0.3328809924795170  0.6662347091370220  
  0.9859075705807360  0.6666439592994070  0.0028196898428874  
  0.9986347168838710  0.6666399998132420  0.3349349006953870  
  0.9986317220186151  0.6666419600973580  0.6622711597832160  
  0.3347267347594000  0.0016746669514731  0.0000631691688895  
  0.3336895526052430  0.0001905799223820  0.3335009806581370  
  0.3336929388781020  0.0001915697470167  0.6664372454380900  
  0.3347201310240350  0.3317282092625430  0.0000631986619339  
  0.3336930950497750  0.3331836370287820  0.3335061634759310  
  0.3336968143221670  0.3331794394357530  0.6664317778943460  
  0.3476435924747750  0.6666546010028540  0.0002738322645897  
  0.3347325056062400  0.6666372328319030  0.3349289820925350  
  0.3349825587427730  0.6666353343788460  0.6648090078767690  
  0.6666514900592660  0.0003654301790448  0.0000628706485415  
  0.6666343540379600  0.0001650672337945  0.3334735203098730  
  0.6666299646352770  0.0001691327481694  0.6664640197741390  
  0.6666337094923160  0.3329969589662200  0.0000634690626740  
  0.6666234656084740  0.3332021025430480  0.3334832563796790  
  0.6666183646532030  0.3331973319640510  0.6664538714722570  
  0.6663396715954870  0.6666490839226070  0.0002741494785568  
  0.6665838484316640  0.6666452237298870  0.3336740208677180  
  0.6663330205054050  0.6666433054784870  0.6660627826104810  
  0.9998260558712960  0.1666585606340620  0.1668920745182800  
  0.9998475298931100  0.1666680511422670  0.4999333087249480  
  0.9998261127906080  0.1666569083984940  0.8331719025947780  
  0.9998179266553610  0.4995463684679390  0.1671476482739110  
  0.9998181705060319  0.4995449503103230  0.4996742031952690  
  0.9998164765401820  0.4969970024961370  0.8331743495190690  
  0.9998311776071840  0.8337926129198370  0.1671332023135290  
  0.9998175640520510  0.8337932501028650  0.4996718953856170  
  0.9998300102349660  0.8363195067675240  0.8331848231127310  
  0.3335729180286080  0.1666528261553990  0.1668506446311820  
  0.3335254560791720  0.1666569402348230  0.4999732276528870  
  0.3336109769900660  0.1666510292029530  0.8331743183501100  
  0.3335572825713840  0.4997529920433050  0.1668442722823190  
  0.3335547210857040  0.4997535696298100  0.4999684597223320  
  0.3338439813501070  0.4995432248452540  0.8331878907817870  
  0.3335677381651790  0.8335912325467660  0.1668426687805040  
  0.3335606781307160  0.8335915538458351  0.4999680705132190  
  0.3338514349243410  0.8337897320889310  0.8331893600706480  
  0.6666291714330940  0.1666463336491550  0.1668144841886700  
  0.6666297408955800  0.1666536489023830  0.4999724698596420  
  0.6665907991609360  0.1666457835023960  0.8332109447582430  
  0.6666294547428040  0.4997497504861950  0.1668575698017920  
  0.6666369068404170  0.4997854812900610  0.4999677181271170  
  0.6663415981419550  0.4995393529262980  0.8331741972516080  
  0.6666253709561401  0.8336044736388150  0.1668509188157470  
  0.6666257745520310  0.8335609044500391  0.4999677540665670  
  0.6663403381094430  0.8338045080645670  0.8331801940132449  
  0.1667272350524340  0.0016728932003858  0.1680157869160790  
  0.1667210996361060  0.0003601737680299  0.4999683400881170  
  0.1669311465574880  0.0019668301271380  0.8320151993772670  
  0.1667237929217440  0.3317162456099180  0.1680189468639100  
  0.1667147579579480  0.3330004135263000  0.4999678658439630  
  0.1669302270843640  0.3314242803939180  0.8320086798925390  
  0.1669118034317590  0.6666411344878680  0.1808997533198210  
  0.1669174558277080  0.6666493778529911  0.4996724718845160  
  0.1694275541561150  0.6666364883832260  0.8194238181973930  
  0.5001667292333210  0.0001884133968417  0.1669905062693360  
  0.5001399399729320  0.0001622297134247  0.4999732219544340  
  0.5001663642872320  0.0002248753300407  0.8330359647939080  
  0.5001666743785830  0.3331728048773140  0.1669848654042450  
  0.5001382134304611  0.3331846399836000  0.4999727853584520  
  0.5001662070698740  0.3331342607799500  0.8330402022465860  
  0.5016425121968170  0.6666501619973180  0.1680447548952560  
  0.5003274169565300  0.6666585231631930  0.4999345683851790  
  0.5016426714045040  0.6666489381251000  0.8320199718236410  
  0.8331531425980570  0.0001951322390994  0.1669849630455930  
  0.8331511473477921  0.0001689462813843  0.4999678505857120  
  0.8329486221228850  0.0004904497806848  0.8330454793303660  
  0.8331423405496849  0.3331685923438530  0.1669837860305780  
  0.8331578674962400  0.3331887632174290  0.4999672633593870  
  0.8329354582717560  0.3328767711664330  0.8330437845442730  
  0.8314799147838980  0.6666640934439060  0.1683090574932890  
  0.8327646659959880  0.6666541022008370  0.4996714340443660  
  0.8289608251810560  0.6666599954585450  0.8320147349767670  
  0.1666992769024700  0.1666550402747900  0.0000371163584987  
  0.1666757879898950  0.1666498004752840  0.3336765912725710  
  0.1666823120414090  0.1666484454797650  0.6662860556700489  
  0.1666818095959000  0.4858664747610530  0.0000364356800375  
  0.1666769789123920  0.4985947042472390  0.3349343732536310  
  0.1666725968074450  0.4985954042087780  0.6650296644963590  
  0.1667121385402410  0.8473538659000890  0.0000370317239131  
  0.1666776105710280  0.8347045622639300  0.3349299555744450  
  0.1666732360407720  0.8347007749556140  0.6650348777268530  
  0.5003408958014010  0.1666711808409500  0.0000300508767452  
  0.5001418031760640  0.1666559281793950  0.3334774781494260  
  0.5001408683003420  0.1666544718387830  0.6664922746419460  
  0.5016353381667000  0.4986009324373480  0.0000367161330317  
  0.5001609639127480  0.4996554568742160  0.3334882751488520  
  0.5001605343292750  0.4996487816508550  0.6664738885809460  
  0.5016466776874040  0.8347215784055350  0.0000372272146549  
  0.5001623856665630  0.8336888589537990  0.3334971134926970  
  0.5001624026632000  0.8336936159206940  0.6664663607562890  
  0.8330119131855510  0.1666532426674220  0.0000372455577988  
  0.8332009652172870  0.1666469110525530  0.3334816845932810  
  0.8331943140800750  0.1666467862781720  0.6664804775720370  
  0.8317118893948600  0.4986093132431930  0.0000367411112308  
  0.8331660893836390  0.4996452540566590  0.3334958959254100  
  0.8331677287618720  0.4996450612223670  0.6664671174326600  
  0.8317366775779430  0.8347236124362420  0.0000369862463998  
  0.8331762537210000  0.8337037837993360  0.3335029443761850  
  0.8331776986667170  0.8337017109894020  0.6664611200516080  
  0.9996541435417400  0.1666809261711680  0.0000725436300044  
  0.0002086892220632  0.1666756489036490  0.3330372557018180  
  0.0002086930870675  0.1666747123231000  0.6668877874030200  
  0.0035579697394326  0.5042678752061390  0.9992885036588460  
  0.0006775317625056  0.5006040392304810  0.3325278021787310  
  0.0006759912151750  0.5013860647568930  0.6681813483798180  
  0.0035698617325650  0.8290606638375730  0.9992902481156990  
  0.0006838864342953  0.8327109349510950  0.3325294358385450  
  0.0006821913933592  0.8319276646113281  0.6681787993049680  
  0.3336501351667920  0.1666782603625590  0.9999584158019130  
  0.3331074741486760  0.1666725926700750  0.3330450141988730  
  0.3330770145659660  0.1666710633209620  0.6669954102958260  
  0.3296176948610210  0.5036841724281300  0.9998644755327321  
  0.3325795527232240  0.5007195826251450  0.3325298129510440  
  0.3324771560259730  0.5008143324900370  0.6676084288554160  
  0.3296367324387570  0.8296444482587620  0.9998644769415610  
  0.3325870719952630  0.8326013470526380  0.3325359538304580  
  0.3324846043140180  0.8325014510157870  0.6676022946108090  
  0.6667437633003810  0.1666729522683280  0.9999588311365880  
  0.6667005712912230  0.1666683564156340  0.3331917767704270  
  0.6667300398662021  0.1666679646681150  0.6668481643758780  
  0.6668437720263680  0.4997715171512450  0.9998648108518250  
  0.6667336508002040  0.5002473943496570  0.3330369876029950  
  0.6668347179684130  0.5003412439292700  0.6671005330864830  
  0.6668436237178530  0.8335634514951450  0.9998645735555840  
  0.6667310661611690  0.8330921956257100  0.3330411808509130  
  0.6668325861775060  0.8329937516085980  0.6670965676493950  
  0.0007066132955984  0.9990910155662430  0.1658431542535870  
  0.0001987321241046  0.9996036908236260  0.5001203098101360  
  0.0007062680677947  0.9997446589267650  0.8340333147046550  
  0.0006967013304333  0.3342531330486480  0.1658434743236010  
  0.0002047205483677  0.3337467905137150  0.5001235634016580  
  0.0006964020575637  0.3335934673639260  0.8340309560001340  
  0.0035543285899635  0.6666611662904960  0.1636194705483620  
  0.9996383201813051  0.6666662638932910  0.4994694712529300  
  0.0590541682921781  0.7221634342639121  0.8924165087479350  
  0.3326003358786590  0.9991647445924340  0.2215783340784090  
  0.3330035361819480  0.9995946985348571  0.5555556544947110  
  0.3326019885007130  0.0548260434598902  0.8895313634248651  
  0.3326007415355650  0.3341811149128940  0.2215791556336630  
  0.3330072273911990  0.3337497489890140  0.5555564284587580  
  0.3325318242117280  0.3896810461483330  0.8894606222446770  
  0.3296539857874020  0.6666584163135100  0.2187658775329670  
  0.3342191677593430  0.6666580199213140  0.5555582624570410  
  0.3853894219814510  0.7221613047628070  0.8924144415447940  
  0.6667382516496050  0.9996634026097060  0.2220625345747680  
  0.6668052798476650  0.9997409663586080  0.5555565494878040  
  0.6667358228055060  0.0553256639583708  0.8890467461953260  
  0.6667272519161780  0.3336796433983980  0.2220625304065040  
  0.6667973185661680  0.3335979737215520  0.5555562837880070  
  0.6667967469009350  0.3891803354526710  0.8889771110815941  
  0.6667981848827150  0.6666649780064590  0.2227029202224740  
  0.6661494804305830  0.6666636519373480  0.5555581002406810  
  0.7499656052079620  0.5833328072767260  0.8884738833694430  
  0.1666303819749190  0.1666735150499290  0.2226380622681250  
  0.1667391383446030  0.1666734711378410  0.5555560700750060  
  0.1665328794320190  0.2223653145075200  0.8883706809006360  
  0.1665222997826490  0.5036868405806419  0.2187969185098170  
  0.1659512538828240  0.5003470796323060  0.5555568462878280  
  0.1665237512980650  0.5589682524680840  0.8923130683062440  
  0.1665309144095130  0.8296376952074600  0.2188014554868120  
  0.1659487255186320  0.8329828857435470  0.5555565947522610  
  0.2222259509542040  0.8853307084890570  0.8924384922388240  
  0.4997214090277140  0.1666758387000020  0.2220395240761310  
  0.4998681560417990  0.1666767062875680  0.5555560051643910  
  0.4997211309031900  0.2222699131516490  0.8890406596414659  
  0.4992174275465690  0.5007277282330590  0.2215783078064390  
  0.4997247360177470  0.5001251525819090  0.5555555154027940  
  0.4992179985860190  0.5562030295922110  0.8895299777353149  
  0.4992210507065100  0.8326058089771000  0.2215797660804310  
  0.4997201830092310  0.8331957509270400  0.5555565624882560  
  0.5548201471726700  0.8882027281399300  0.8895292169890250  
  0.8336776470921090  0.1666686447495490  0.2220653162800230  
  0.8334055563451630  0.1666717125381330  0.5555564804832041  
  0.8337754076811240  0.2223616417531320  0.8889432719903430  
  0.8342696628687490  0.5008310091690900  0.2216804022206920  
  0.8343392136791010  0.5009155526621640  0.5555566979260790  
  0.8342700968827470  0.5561126241916839  0.8894291412411230  
  0.8342748879933670  0.8325164227826179  0.2216807365490960  
  0.8343438863401570  0.8324190323716250  0.5555569579921880  
  0.8895532918011990  0.8602743691498200  0.8616720636694880  
  0.1666383604289480  0.0025960011464150  0.0555548113512998  
  0.1665305667117710  0.9992261663202910  0.3884051470515220  
  0.1665303040531040  0.0550965246086363  0.7227041570118760  
  0.1666313838283170  0.3307219350520540  0.0555548918840927  
  0.1665248547531700  0.3341129044160880  0.3884068860428230  
  0.1659485421361850  0.3895080953043930  0.7221307673383420  
  0.1667274125046770  0.6666520411860900  0.3359476725603940  
  0.1659379019513030  0.6666507760196790  0.6647636766499970  
  0.4994056114393640  0.9993436630168590  0.9999605665247200  
  0.4997424162066440  0.9997109130523750  0.3330520863584430  
  0.4997420114163870  0.9996798606795140  0.6669884264290570  
  0.4993880636217010  0.3340141886541450  0.9999586575028370  
  0.4997380908675240  0.3336337639219020  0.3330599731387310  
  0.4997373777170400  0.3336631340774690  0.6669797828182240  
  0.5026585048743260  0.6666617393192030  0.0000727934163649  
  0.4993824680270580  0.6666644349105300  0.3327084750183220  
  0.4993825724609170  0.6666630305631930  0.6672184366923301  
  0.8341190105068530  0.9992247399149360  0.9998624818452270  
  0.8336528956309690  0.9996788056643310  0.3330562174314410  
  0.8337503622734350  0.9995787858909820  0.6670795304410430  
  0.8341030576395310  0.3341132161868500  0.9998612757524510  
  0.8336485953316241  0.3336636443206300  0.3330624846789480  
  0.8337450340202960  0.3337626093298600  0.6670730286861040  
  0.8313837310873280  0.6666706541308119  0.9992905667741500  
  0.8338844317156670  0.6666642357098450  0.3327130095074370  
  0.8346702215057320  0.6666631210290820  0.6679975396503930  
