Mo  S Li                                
   1.00000000000000     
    27.1203981867000010    0.4023603500000000   -2.4028070269000001
     0.3017446571000000   23.3624652224999991   -0.4376913698000000
    -7.1295779436000002   -0.2894054832000000   10.3645110117999995
   Mo   S    Li
    48   208     1
Direct
  0.5361673306365438  0.0878379652729341  0.6727604593920216
  0.8644401326616065  0.4225851781993192  0.6575110689979161
  0.7612002116973486  0.5620357677375090  0.0123435222355761
  0.8960203874318021  0.7988129680416775  0.8336008088374747
  0.2790170590627351  0.4616720806115437  0.1634185589120184
  0.5347750798539833  0.5314364930040097  0.3754250931177699
  0.6452202217484186  0.9126630536359956  0.7397839474223992
  0.0607730356196895  0.9771235487498642  0.7382635672664675
  0.7623846089904970  0.2458389588848559  0.1363725014054908
  0.9732464413544116  0.9077214273389912  0.7342829020744259
  0.3655878499994618  0.9636843884544198  0.0837448154903086
  0.7033248399757082  0.5071169294703689  0.1164163833220473
  0.9079453828100319  0.6853707459064055  0.7410807657725381
  0.8767588848191690  0.2637851807639293  0.1896354324365105
  0.1844328316132473  0.5415475544122826  0.5539583671243730
  0.4174327478445499  0.9193989597192689  0.9604870311434869
  0.8848154026335776  0.9327571893969558  0.7668323683068206
  0.6265350408452245  0.0710502113662142  0.2297938103608436
  0.7279250950490296  0.3845880391605086  0.5674118045697008
  0.5864414072840924  0.4902483367883705  0.2248673507076567
  0.3503757328908202  0.0868955799138845  0.3159793944006193
  0.8488045366505282  0.8535679904385254  0.5373212078841323
  0.2102450590814479  0.6837636677659397  0.4936410902314482
  0.4900833408601306  0.1042743396172254  0.0727031475566583
  0.6022888536256951  0.0815033438261313  0.5690677353494275
  0.4812367860888954  0.1938068595117815  0.9187622332621885
  0.6263104539353201  0.1746265665394748  0.1072917983008375
  0.2567607795409670  0.3522332026720130  0.0753866201046865
  0.8349531665983946  0.9679971958679315  0.0360688921412781
  0.6060363919558353  0.4355970356050444  0.4436106647196457
  0.3390942968761333  0.7767887681031329  0.2538093985302681
  0.5274315758732013  0.9853510989539542  0.1736427250310019
  0.0183152517632804  0.1935437482639820  0.9479227218083159
  0.8698191017130679  0.6773660356110656  0.4771873957473076
  0.2106964063954335  0.7496781767392245  0.0453174375341283
  0.5199354607531856  0.9916698168697267  0.5194868449287908
  0.7201691042097152  0.0273932809452279  0.8123454105298201
  0.7383451067544019  0.1237746877938360  0.3360214543906542
  0.5163222747658375  0.8735418476765927  0.2320756094700684
  0.1890728115316023  0.4662006012336519  0.7204671085630467
  0.3448123921932098  0.6688192838828316  0.6814982427690389
  0.1042563885493340  0.1767626699892669  0.8920921184376419
  0.2180883780174041  0.2226952473379730  0.9522331717092533
  0.3770578019085954  0.1812889501918729  0.9005727211229746
  0.2796084144958297  0.7646893578352546  0.6958082847314744
  0.2087667493387040  0.2470062044865540  0.3118839603708917
  0.8663379099906456  0.5798920697703589  0.0006213505444911
  0.2529073515820509  0.1690228572085090  0.2059369790229904
  0.2246094812899294  0.8843375601172495  0.2517500152744346
  0.4144371478119565  0.5838327638017928  0.6963729001444700
  0.0488068184409029  0.7791712923248953  0.3305609142332778
  0.4897756792501989  0.0883172542986392  0.4407755589004168
  0.3105922741603132  0.9289419693811648  0.1578224047942475
  0.3649907536197327  0.1862680248941043  0.3645453374499911
  0.0370511860227546  0.4694709387891893  0.6453318930215548
  0.6704036789236304  0.0841032615265059  0.1117481915520582
  0.0981624026699479  0.5028047531485064  0.5058831580691110
  0.6910679267176709  0.6336880918937068  0.8421943529620330
  0.3444422394785244  0.0569246560709739  0.1349771830287417
  0.6028032525287347  0.8062837808772942  0.3096280966594263
  0.0811523605150944  0.2747042421414545  0.9534841581903376
  0.8360060922118375  0.7702466510536694  0.3632406608982984
  0.9600550945993128  0.5425530808252609  0.0354978634648861
  0.7744557300242065  0.4730123256094133  0.6082788747262637
  0.1777665956853997  0.0554399296504399  0.4154597610603525
  0.9857062110403131  0.6065087276895190  0.8200982375564639
  0.9488047230693671  0.5242568200190024  0.1766041782929513
  0.1394293945171252  0.7365790463152441  0.2866570484624724
  0.6755230163431002  0.2239630811951797  0.6825181448356785
  0.0154453907504023  0.0611982641489662  0.4045184356202736
  0.2230494155101681  0.4003753781803140  0.2006810232555718
  0.1567201966585582  0.2240466492256006  0.4018122243080287
  0.6938006218590330  0.4275716666672657  0.6901487948838443
  0.2487054802415605  0.1616958020722973  0.8482543858324252
  0.5549868602790815  0.7354305721036358  0.9136149656242117
  0.6652729315431577  0.2005781706539932  0.9807402108715413
  0.7381873682911411  0.3388214484253906  0.0761623242987026
  0.8655963052812675  0.2409148414227475  0.3477886390962914
  0.7894488086566240  0.2079818793141522  0.0090843309150327
  0.1152138004817103  0.6174468742353691  0.3919904077847480
  0.4034171327357780  0.6240327136049553  0.3050202395110115
  0.6086037660108917  0.9355026818773909  0.3748637168486496
  0.1266972478161701  0.5031337085899157  0.7876228057741894
  0.6015633653370279  0.4631680736058871  0.9534541652200695
  0.2724849814917303  0.4709071262011575  0.4565663830105136
  0.2586486174081525  0.3928749772539403  0.7083073014248213
  0.5622269906998926  0.6436495009260250  0.8753160700036315
  0.1667954919368700  0.6624866359502330  0.2476540562733269
  0.6426372244119239  0.5281459012130740  0.4618463550278526
  0.2212833106176854  0.0233801214046568  0.6077863327221340
  0.8045997888628257  0.4679109937877350  0.2697525185765489
  0.4025484224089012  0.6567311083428308  0.5987208789737323
  0.2478739195567399  0.7962507233161283  0.2630360823866574
  0.8745342520240560  0.9545502256041176  0.5730073001381724
  0.8969051332108314  0.4916824092217648  0.6127038065527566
  0.0151547094188503  0.2590915872751873  0.0904663498652565
  0.4800858652681500  0.9609157599623281  0.2849173852238698
  0.4338937287149371  0.7108180322134893  0.3520715337731015
  0.6475068344575255  0.0919906573357794  0.8050629550862755
  0.0541000915965807  0.3835614595047183  0.6449306277764318
  0.9887478623187179  0.1874797030731935  0.7214259282790040
  0.9876754653762252  0.0616283572892233  0.6302612164805458
  0.1286887499378193  0.3775558060803602  0.6415083902900701
  0.3159069596749293  0.2791236615519854  0.0489885156809573
  0.4177736783171030  0.0178686622533515  0.0138052475971684
  0.2570899575097462  0.5593018246627226  0.0817841259683997
  0.4310370550658737  0.8558940716743489  0.6208518096312279
  0.6347175519529787  0.9135525262220163  0.9105988654664032
  0.5669534623733993  0.6163581580626608  0.5092949568862091
  0.4821934556985674  0.3305856226562091  0.7260928924394394
  0.7197063620847289  0.0845018137499137  0.6750366137406457
  0.7803062425689286  0.3771427668163259  0.4435148998479123
  0.8163187582157426  0.9194689095568197  0.1484438091345268
  0.3583396022795233  0.8716135476247756  0.6461952982612242
  0.6900517023521451  0.4856369975587921  0.9163073343802298
  0.0531965746899458  0.1447500447515025  0.4506229505315622
  0.7990215605528898  0.0568384181233232  0.0391382916996387
  0.5947583891681255  0.7789129137005864  0.5537913760667487
  0.0542664369896945  0.6474598943074986  0.4330368305457064
  0.1702826799300315  0.4224998743686278  0.9954572835288783
  0.2558680482337393  0.0678242532416734  0.2551852963525305
  0.8284815735261375  0.3513968998880397  0.1287756228956996
  0.2369031550394313  0.2725374993835161  0.1660199396944928
  0.4002798511017769  0.9972064596711810  0.4404516065303951
  0.8422558498972220  0.1366320671418225  0.5620662754977253
  0.9041610560558563  0.2071772299300747  0.8566710629821034
  0.1003206161621386  0.5311638321721895  0.0645567978590054
  0.2655611612540212  0.5480414909884727  0.2557802986487271
  0.2582668667747876  0.3267639876125980  0.4652128566567421
  0.8311036619235911  0.6206583593302459  0.5527555618259158
  0.8666321836405958  0.3365084008274924  0.5515847293064760
  0.9857214259830800  0.9212892255937331  0.5619072607031068
  0.6627083314865649  0.1649302576179885  0.3486045917056025
  0.4951422468221156  0.2701545278910488  0.4923345692732040
  0.5436674023167352  0.9951302959692609  0.7357876178616455
  0.5673092171924392  0.0713772360839135  0.3152707739294700
  0.5349609939068638  0.0302968279113618  0.0152150791526372
  0.0239847468246912  0.8343398454324950  0.4244151577651933
  0.2233465167020697  0.8498896670659538  0.5866776222906268
  0.5779365004532120  0.3047265240213454  0.8837049528554125
  0.9454982762751040  0.9390101420340609  0.2035484623918142
  0.4887749918026035  0.5851687133292353  0.4747179946719675
  0.5465802155083354  0.4537419523850860  0.0091414844604861
  0.2419473801013173  0.8441426788976075  0.7695166723636321
  0.7308292449217855  0.2224038905677622  0.2717274261510899
  0.2726467219018979  0.4351021094111909  0.9695075538505672
  0.6850909395267964  0.9771208724415786  0.2956183097967920
  0.3928298833859310  0.7442860475294066  0.1688251214955037
  0.9654081925362358  0.3962593048092096  0.8791174959113174
  0.5164417660505559  0.7705290513288028  0.1917570846456300
  0.3479482270069826  0.6938735001406500  0.8756921603369859
  0.2697630248359146  0.2027991264544884  0.7386734457468311
  0.1588548771018406  0.9387947191316388  0.8145471790352551
  0.5674503837915686  0.2716972332015039  0.0174669358682958
  0.1065781625062631  0.7816844503500628  0.9464392284068779
  0.0397809004666654  0.9890985203313352  0.8993450215043327
  0.5298825255934553  0.4535676590457137  0.4745263026592938
  0.7469305817196273  0.2255852832248516  0.6690625809721137
  0.2802167008026760  0.5051571021827146  0.7657553499897080
  0.8374153819900326  0.0933141525966130  0.4127433000013723
  0.2686841477660978  0.5977053745971159  0.5705252728398071
  0.5146756320571100  0.5963266580157514  0.9066415013112759
  0.5751302891945671  0.7643641193911151  0.7956704658558352
  0.0135022798363787  0.1043230788791585  0.9802088767904007
  0.3555141667528717  0.3886548331672006  0.2545245324930088
  0.5159403843130428  0.8278296752343713  0.4144670277376687
  0.7998309885252711  0.8747602733825779  0.6421282123361308
  0.6425038500532900  0.3952092983033305  0.3266500826927836
  0.1151900536473996  0.7447430123077465  0.8062770855918255
  0.3807698938830361  0.2454303515313527  0.7421746763605300
  0.4850886688796512  0.3479404321037938  0.5751064619908136
  0.2026660224970038  0.3493046136989122  0.5233771385481381
  0.7428452122487939  0.9597873503202526  0.2407968103776463
  0.5386952235132675  0.1407068005915768  0.8596919968671797
  0.7535664207136318  0.9353264066977326  0.8099355062983014
  0.3704937880889422  0.8715501291393541  0.3108422067358124
  0.9737893401291506  0.8741548878568087  0.9198872833250102
  0.9766383481041895  0.7338701319034273  0.9614163288836298
  0.7576525113854574  0.6535262074075607  0.6906935747052496
  0.1073562288232550  0.2873865955466179  0.2605307724115331
  0.9249664031306221  0.1801797870695075  0.1485391617611565
  0.9470764950440304  0.8168500915249990  0.6166660806503148
  0.5085914315203175  0.5675835880540385  0.1593739559442877
  0.9852245622128405  0.2750469579022930  0.7767374002989916
  0.1557221495915641  0.6670888879503187  0.8931800638847893
  0.4146343586707175  0.2382621502798013  0.3143686730618937
  0.8458778959370327  0.5118399004746541  0.2078446258536871
  0.1376598987532232  0.1760031794316993  0.1223095414014990
  0.9345319144589297  0.8627143385788862  0.2694262622576362
  0.4240827954352350  0.4295467954122538  0.1100494925527994
  0.8317711220891639  0.3489430673389527  0.7776683956401601
  0.2930263355300856  0.7445095159192339  0.5346125494661942
  0.9015278931248092  0.9869314286743001  0.9630389540330750
  0.1331147822974060  0.8821466262198713  0.1895599924137814
  0.2047646918545559  0.1270428837566233  0.9856664811630061
  0.0479352075845950  0.5979853356928274  0.0267897155598390
  0.1167588630730363  0.9728414337948406  0.6278314661870327
  0.3842022542664626  0.8261478566437782  0.8144209649422327
  0.1905880969138971  0.4795183247080735  0.4167266347060253
  0.2312545899229814  0.3060873260213998  0.8646430955183204
  0.8295616107580909  0.7609013678285492  0.6117820690595688
  0.0967692124753043  0.0047468412258032  0.2767233548345991
  0.4183841846242663  0.0699605816815900  0.5612596445523667
  0.6670378699724724  0.8379613230667003  0.6414734519291924
  0.1957831876843427  0.7140087367429315  0.6473668634964063
  0.5965507045185149  0.1808709608715306  0.5175745289979355
  0.6880672749730421  0.5074145369689420  0.2758540401392097
  0.7284178020675315  0.6914051936819580  0.7904099142881205
  0.5225383251150749  0.1872836357576927  0.7012603119950165
  0.4116079868710230  0.1130635533674190  0.8228788942552715
  0.8950182440348772  0.4198347575873029  0.8871019515132006
  0.5920736290438517  0.5906121818243779  0.1929018366123382
  0.5455647413677872  0.1928071522841321  0.1540714083278278
  0.7021808141394098  0.8555142241052138  0.9510420776080662
  0.8890830083503485  0.1508114494852917  0.9508877121510875
  0.7334212869738606  0.2810735762491049  0.5288869725418293
  0.8534343747038741  0.7992680372231743  0.9297035590554994
  0.4247145545215439  0.1557159649161945  0.1170869299502715
  0.3562854723518470  0.5119534721811582  0.3815700131952992
  0.4002252066656534  0.8637754804661485  0.0844881792225932
  0.7179093023526826  0.6008111788315226  0.1170701638183973
  0.1236996917340178  0.9210414353591905  0.3259245464848795
  0.5330673447050449  0.8895902252379652  0.5729596738044125
  0.6191042822863916  0.9806955419747666  0.5737878982726347
  0.2832548759887066  0.1813614027388596  0.4416827747642696
  0.6727998161087273  0.7663735119384459  0.9166892527701251
  0.6508315236013089  0.3509824865718756  0.5934194596761517
  0.9624740599325973  0.7225509494982185  0.6746631694407142
  0.9989129257326373  0.7035688664246050  0.2799703431725049
  0.3009774340407014  0.9404352223719010  0.8597349487094712
  0.2869747805738064  0.6890753959291346  0.2202257062921854
  0.3881162801589884  0.9509660399592440  0.7394632874515125
  0.9142838007288198  0.6198967707239174  0.4243731812601356
  0.7282657976799877  0.0434452127679983  0.4484075117608396
  0.4259958041145951  0.2706821857146781  0.9452850517222402
  0.8650185677870357  0.0283879306410831  0.7821303686083853
  0.9462081101486114  0.0727786653167954  0.4163839591237671
  0.7697823732781981  0.8757249533703316  0.3069510761289362
  0.1737638769512218  0.0473559936093745  0.6790449425112969
  0.0830102233819388  0.0860736144699931  0.7632728170900782
  0.5247570956100016  0.8974586849274327  0.0605644599848014
  0.4338281372297897  0.6966329914598957  0.9129457524541752
  0.2329365836971888  0.5663680549131501  0.7967288602438483
  0.4255875654985390  0.5139764581951429  0.1670766504897598
  0.4115602008154874  0.7805166045375802  0.5212556459048218
  0.8563875256702204  0.6376139047168897  0.8373461536806549
  0.1131396006611253  0.2372044226760063  0.7654739174443366
  0.0897744930057627  0.9174553457767683  0.9199786803478750
  0.8452372621836765  0.6381485077312804  0.1114418006529222
  0.0261485826461139  0.1703385732479433  0.2697774852204882
  0.2637048499590632  0.8095891119417350  0.0200910452728973
  0.9503858140681894  0.3310775653580611  0.2158781197481585
  0.9863365495389875  0.2849307384279497  0.3835548756737775
  0.7670262077676239  0.7092987978117000  0.2846480924330345
  0.5173122238465975  0.4087794709902789  0.1960728767492084
  0.7841796147304132  0.5227316356478460  0.8634896383455161
  0.2807989959791783  0.6529585153857204  0.3830120851440110
 
  0.00000000E+00  0.00000000E+00  0.00000000E+00
  0.00000000E+00  0.00000000E+00  0.00000000E+00
  0.00000000E+00  0.00000000E+00  0.00000000E+00
  0.00000000E+00  0.00000000E+00  0.00000000E+00
  0.00000000E+00  0.00000000E+00  0.00000000E+00
  0.00000000E+00  0.00000000E+00  0.00000000E+00
  0.00000000E+00  0.00000000E+00  0.00000000E+00
  0.00000000E+00  0.00000000E+00  0.00000000E+00
  0.00000000E+00  0.00000000E+00  0.00000000E+00
  0.00000000E+00  0.00000000E+00  0.00000000E+00
  0.00000000E+00  0.00000000E+00  0.00000000E+00
  0.00000000E+00  0.00000000E+00  0.00000000E+00
  0.00000000E+00  0.00000000E+00  0.00000000E+00
  0.00000000E+00  0.00000000E+00  0.00000000E+00
  0.00000000E+00  0.00000000E+00  0.00000000E+00
  0.00000000E+00  0.00000000E+00  0.00000000E+00
  0.00000000E+00  0.00000000E+00  0.00000000E+00
  0.00000000E+00  0.00000000E+00  0.00000000E+00
  0.00000000E+00  0.00000000E+00  0.00000000E+00
  0.00000000E+00  0.00000000E+00  0.00000000E+00
  0.00000000E+00  0.00000000E+00  0.00000000E+00
  0.00000000E+00  0.00000000E+00  0.00000000E+00
  0.00000000E+00  0.00000000E+00  0.00000000E+00
  0.00000000E+00  0.00000000E+00  0.00000000E+00
  0.00000000E+00  0.00000000E+00  0.00000000E+00
  0.00000000E+00  0.00000000E+00  0.00000000E+00
  0.00000000E+00  0.00000000E+00  0.00000000E+00
  0.00000000E+00  0.00000000E+00  0.00000000E+00
  0.00000000E+00  0.00000000E+00  0.00000000E+00
  0.00000000E+00  0.00000000E+00  0.00000000E+00
  0.00000000E+00  0.00000000E+00  0.00000000E+00
  0.00000000E+00  0.00000000E+00  0.00000000E+00
  0.00000000E+00  0.00000000E+00  0.00000000E+00
  0.00000000E+00  0.00000000E+00  0.00000000E+00
  0.00000000E+00  0.00000000E+00  0.00000000E+00
  0.00000000E+00  0.00000000E+00  0.00000000E+00
  0.00000000E+00  0.00000000E+00  0.00000000E+00
  0.00000000E+00  0.00000000E+00  0.00000000E+00
  0.00000000E+00  0.00000000E+00  0.00000000E+00
  0.00000000E+00  0.00000000E+00  0.00000000E+00
  0.00000000E+00  0.00000000E+00  0.00000000E+00
  0.00000000E+00  0.00000000E+00  0.00000000E+00
  0.00000000E+00  0.00000000E+00  0.00000000E+00
  0.00000000E+00  0.00000000E+00  0.00000000E+00
  0.00000000E+00  0.00000000E+00  0.00000000E+00
  0.00000000E+00  0.00000000E+00  0.00000000E+00
  0.00000000E+00  0.00000000E+00  0.00000000E+00
  0.00000000E+00  0.00000000E+00  0.00000000E+00
  0.00000000E+00  0.00000000E+00  0.00000000E+00
  0.00000000E+00  0.00000000E+00  0.00000000E+00
  0.00000000E+00  0.00000000E+00  0.00000000E+00
  0.00000000E+00  0.00000000E+00  0.00000000E+00
  0.00000000E+00  0.00000000E+00  0.00000000E+00
  0.00000000E+00  0.00000000E+00  0.00000000E+00
  0.00000000E+00  0.00000000E+00  0.00000000E+00
  0.00000000E+00  0.00000000E+00  0.00000000E+00
  0.00000000E+00  0.00000000E+00  0.00000000E+00
  0.00000000E+00  0.00000000E+00  0.00000000E+00
  0.00000000E+00  0.00000000E+00  0.00000000E+00
  0.00000000E+00  0.00000000E+00  0.00000000E+00
  0.00000000E+00  0.00000000E+00  0.00000000E+00
  0.00000000E+00  0.00000000E+00  0.00000000E+00
  0.00000000E+00  0.00000000E+00  0.00000000E+00
  0.00000000E+00  0.00000000E+00  0.00000000E+00
  0.00000000E+00  0.00000000E+00  0.00000000E+00
  0.00000000E+00  0.00000000E+00  0.00000000E+00
  0.00000000E+00  0.00000000E+00  0.00000000E+00
  0.00000000E+00  0.00000000E+00  0.00000000E+00
  0.00000000E+00  0.00000000E+00  0.00000000E+00
  0.00000000E+00  0.00000000E+00  0.00000000E+00
  0.00000000E+00  0.00000000E+00  0.00000000E+00
  0.00000000E+00  0.00000000E+00  0.00000000E+00
  0.00000000E+00  0.00000000E+00  0.00000000E+00
  0.00000000E+00  0.00000000E+00  0.00000000E+00
  0.00000000E+00  0.00000000E+00  0.00000000E+00
  0.00000000E+00  0.00000000E+00  0.00000000E+00
  0.00000000E+00  0.00000000E+00  0.00000000E+00
  0.00000000E+00  0.00000000E+00  0.00000000E+00
  0.00000000E+00  0.00000000E+00  0.00000000E+00
  0.00000000E+00  0.00000000E+00  0.00000000E+00
  0.00000000E+00  0.00000000E+00  0.00000000E+00
  0.00000000E+00  0.00000000E+00  0.00000000E+00
  0.00000000E+00  0.00000000E+00  0.00000000E+00
  0.00000000E+00  0.00000000E+00  0.00000000E+00
  0.00000000E+00  0.00000000E+00  0.00000000E+00
  0.00000000E+00  0.00000000E+00  0.00000000E+00
  0.00000000E+00  0.00000000E+00  0.00000000E+00
  0.00000000E+00  0.00000000E+00  0.00000000E+00
  0.00000000E+00  0.00000000E+00  0.00000000E+00
  0.00000000E+00  0.00000000E+00  0.00000000E+00
  0.00000000E+00  0.00000000E+00  0.00000000E+00
  0.00000000E+00  0.00000000E+00  0.00000000E+00
  0.00000000E+00  0.00000000E+00  0.00000000E+00
  0.00000000E+00  0.00000000E+00  0.00000000E+00
  0.00000000E+00  0.00000000E+00  0.00000000E+00
  0.00000000E+00  0.00000000E+00  0.00000000E+00
  0.00000000E+00  0.00000000E+00  0.00000000E+00
  0.00000000E+00  0.00000000E+00  0.00000000E+00
  0.00000000E+00  0.00000000E+00  0.00000000E+00
  0.00000000E+00  0.00000000E+00  0.00000000E+00
  0.00000000E+00  0.00000000E+00  0.00000000E+00
  0.00000000E+00  0.00000000E+00  0.00000000E+00
  0.00000000E+00  0.00000000E+00  0.00000000E+00
  0.00000000E+00  0.00000000E+00  0.00000000E+00
  0.00000000E+00  0.00000000E+00  0.00000000E+00
  0.00000000E+00  0.00000000E+00  0.00000000E+00
  0.00000000E+00  0.00000000E+00  0.00000000E+00
  0.00000000E+00  0.00000000E+00  0.00000000E+00
  0.00000000E+00  0.00000000E+00  0.00000000E+00
  0.00000000E+00  0.00000000E+00  0.00000000E+00
  0.00000000E+00  0.00000000E+00  0.00000000E+00
  0.00000000E+00  0.00000000E+00  0.00000000E+00
  0.00000000E+00  0.00000000E+00  0.00000000E+00
  0.00000000E+00  0.00000000E+00  0.00000000E+00
  0.00000000E+00  0.00000000E+00  0.00000000E+00
  0.00000000E+00  0.00000000E+00  0.00000000E+00
  0.00000000E+00  0.00000000E+00  0.00000000E+00
  0.00000000E+00  0.00000000E+00  0.00000000E+00
  0.00000000E+00  0.00000000E+00  0.00000000E+00
  0.00000000E+00  0.00000000E+00  0.00000000E+00
  0.00000000E+00  0.00000000E+00  0.00000000E+00
  0.00000000E+00  0.00000000E+00  0.00000000E+00
  0.00000000E+00  0.00000000E+00  0.00000000E+00
  0.00000000E+00  0.00000000E+00  0.00000000E+00
  0.00000000E+00  0.00000000E+00  0.00000000E+00
  0.00000000E+00  0.00000000E+00  0.00000000E+00
  0.00000000E+00  0.00000000E+00  0.00000000E+00
  0.00000000E+00  0.00000000E+00  0.00000000E+00
  0.00000000E+00  0.00000000E+00  0.00000000E+00
  0.00000000E+00  0.00000000E+00  0.00000000E+00
  0.00000000E+00  0.00000000E+00  0.00000000E+00
  0.00000000E+00  0.00000000E+00  0.00000000E+00
  0.00000000E+00  0.00000000E+00  0.00000000E+00
  0.00000000E+00  0.00000000E+00  0.00000000E+00
  0.00000000E+00  0.00000000E+00  0.00000000E+00
  0.00000000E+00  0.00000000E+00  0.00000000E+00
  0.00000000E+00  0.00000000E+00  0.00000000E+00
  0.00000000E+00  0.00000000E+00  0.00000000E+00
  0.00000000E+00  0.00000000E+00  0.00000000E+00
  0.00000000E+00  0.00000000E+00  0.00000000E+00
  0.00000000E+00  0.00000000E+00  0.00000000E+00
  0.00000000E+00  0.00000000E+00  0.00000000E+00
  0.00000000E+00  0.00000000E+00  0.00000000E+00
  0.00000000E+00  0.00000000E+00  0.00000000E+00
  0.00000000E+00  0.00000000E+00  0.00000000E+00
  0.00000000E+00  0.00000000E+00  0.00000000E+00
  0.00000000E+00  0.00000000E+00  0.00000000E+00
  0.00000000E+00  0.00000000E+00  0.00000000E+00
  0.00000000E+00  0.00000000E+00  0.00000000E+00
  0.00000000E+00  0.00000000E+00  0.00000000E+00
  0.00000000E+00  0.00000000E+00  0.00000000E+00
  0.00000000E+00  0.00000000E+00  0.00000000E+00
  0.00000000E+00  0.00000000E+00  0.00000000E+00
  0.00000000E+00  0.00000000E+00  0.00000000E+00
  0.00000000E+00  0.00000000E+00  0.00000000E+00
  0.00000000E+00  0.00000000E+00  0.00000000E+00
  0.00000000E+00  0.00000000E+00  0.00000000E+00
  0.00000000E+00  0.00000000E+00  0.00000000E+00
  0.00000000E+00  0.00000000E+00  0.00000000E+00
  0.00000000E+00  0.00000000E+00  0.00000000E+00
  0.00000000E+00  0.00000000E+00  0.00000000E+00
  0.00000000E+00  0.00000000E+00  0.00000000E+00
  0.00000000E+00  0.00000000E+00  0.00000000E+00
  0.00000000E+00  0.00000000E+00  0.00000000E+00
  0.00000000E+00  0.00000000E+00  0.00000000E+00
  0.00000000E+00  0.00000000E+00  0.00000000E+00
  0.00000000E+00  0.00000000E+00  0.00000000E+00
  0.00000000E+00  0.00000000E+00  0.00000000E+00
  0.00000000E+00  0.00000000E+00  0.00000000E+00
  0.00000000E+00  0.00000000E+00  0.00000000E+00
  0.00000000E+00  0.00000000E+00  0.00000000E+00
  0.00000000E+00  0.00000000E+00  0.00000000E+00
  0.00000000E+00  0.00000000E+00  0.00000000E+00
  0.00000000E+00  0.00000000E+00  0.00000000E+00
  0.00000000E+00  0.00000000E+00  0.00000000E+00
  0.00000000E+00  0.00000000E+00  0.00000000E+00
  0.00000000E+00  0.00000000E+00  0.00000000E+00
  0.00000000E+00  0.00000000E+00  0.00000000E+00
  0.00000000E+00  0.00000000E+00  0.00000000E+00
  0.00000000E+00  0.00000000E+00  0.00000000E+00
  0.00000000E+00  0.00000000E+00  0.00000000E+00
  0.00000000E+00  0.00000000E+00  0.00000000E+00
  0.00000000E+00  0.00000000E+00  0.00000000E+00
  0.00000000E+00  0.00000000E+00  0.00000000E+00
  0.00000000E+00  0.00000000E+00  0.00000000E+00
  0.00000000E+00  0.00000000E+00  0.00000000E+00
  0.00000000E+00  0.00000000E+00  0.00000000E+00
  0.00000000E+00  0.00000000E+00  0.00000000E+00
  0.00000000E+00  0.00000000E+00  0.00000000E+00
  0.00000000E+00  0.00000000E+00  0.00000000E+00
  0.00000000E+00  0.00000000E+00  0.00000000E+00
  0.00000000E+00  0.00000000E+00  0.00000000E+00
  0.00000000E+00  0.00000000E+00  0.00000000E+00
  0.00000000E+00  0.00000000E+00  0.00000000E+00
  0.00000000E+00  0.00000000E+00  0.00000000E+00
  0.00000000E+00  0.00000000E+00  0.00000000E+00
  0.00000000E+00  0.00000000E+00  0.00000000E+00
  0.00000000E+00  0.00000000E+00  0.00000000E+00
  0.00000000E+00  0.00000000E+00  0.00000000E+00
  0.00000000E+00  0.00000000E+00  0.00000000E+00
  0.00000000E+00  0.00000000E+00  0.00000000E+00
  0.00000000E+00  0.00000000E+00  0.00000000E+00
  0.00000000E+00  0.00000000E+00  0.00000000E+00
  0.00000000E+00  0.00000000E+00  0.00000000E+00
  0.00000000E+00  0.00000000E+00  0.00000000E+00
  0.00000000E+00  0.00000000E+00  0.00000000E+00
  0.00000000E+00  0.00000000E+00  0.00000000E+00
  0.00000000E+00  0.00000000E+00  0.00000000E+00
  0.00000000E+00  0.00000000E+00  0.00000000E+00
  0.00000000E+00  0.00000000E+00  0.00000000E+00
  0.00000000E+00  0.00000000E+00  0.00000000E+00
  0.00000000E+00  0.00000000E+00  0.00000000E+00
  0.00000000E+00  0.00000000E+00  0.00000000E+00
  0.00000000E+00  0.00000000E+00  0.00000000E+00
  0.00000000E+00  0.00000000E+00  0.00000000E+00
  0.00000000E+00  0.00000000E+00  0.00000000E+00
  0.00000000E+00  0.00000000E+00  0.00000000E+00
  0.00000000E+00  0.00000000E+00  0.00000000E+00
  0.00000000E+00  0.00000000E+00  0.00000000E+00
  0.00000000E+00  0.00000000E+00  0.00000000E+00
  0.00000000E+00  0.00000000E+00  0.00000000E+00
  0.00000000E+00  0.00000000E+00  0.00000000E+00
  0.00000000E+00  0.00000000E+00  0.00000000E+00
  0.00000000E+00  0.00000000E+00  0.00000000E+00
  0.00000000E+00  0.00000000E+00  0.00000000E+00
  0.00000000E+00  0.00000000E+00  0.00000000E+00
  0.00000000E+00  0.00000000E+00  0.00000000E+00
  0.00000000E+00  0.00000000E+00  0.00000000E+00
  0.00000000E+00  0.00000000E+00  0.00000000E+00
  0.00000000E+00  0.00000000E+00  0.00000000E+00
  0.00000000E+00  0.00000000E+00  0.00000000E+00
  0.00000000E+00  0.00000000E+00  0.00000000E+00
  0.00000000E+00  0.00000000E+00  0.00000000E+00
  0.00000000E+00  0.00000000E+00  0.00000000E+00
  0.00000000E+00  0.00000000E+00  0.00000000E+00
  0.00000000E+00  0.00000000E+00  0.00000000E+00
  0.00000000E+00  0.00000000E+00  0.00000000E+00
  0.00000000E+00  0.00000000E+00  0.00000000E+00
  0.00000000E+00  0.00000000E+00  0.00000000E+00
  0.00000000E+00  0.00000000E+00  0.00000000E+00
  0.00000000E+00  0.00000000E+00  0.00000000E+00
  0.00000000E+00  0.00000000E+00  0.00000000E+00
  0.00000000E+00  0.00000000E+00  0.00000000E+00
  0.00000000E+00  0.00000000E+00  0.00000000E+00
  0.00000000E+00  0.00000000E+00  0.00000000E+00
  0.00000000E+00  0.00000000E+00  0.00000000E+00
  0.00000000E+00  0.00000000E+00  0.00000000E+00
  0.00000000E+00  0.00000000E+00  0.00000000E+00
  0.00000000E+00  0.00000000E+00  0.00000000E+00
  0.00000000E+00  0.00000000E+00  0.00000000E+00
  0.00000000E+00  0.00000000E+00  0.00000000E+00
  0.00000000E+00  0.00000000E+00  0.00000000E+00
  0.00000000E+00  0.00000000E+00  0.00000000E+00
  0.00000000E+00  0.00000000E+00  0.00000000E+00
  0.00000000E+00  0.00000000E+00  0.00000000E+00
  0.00000000E+00  0.00000000E+00  0.00000000E+00
  0.00000000E+00  0.00000000E+00  0.00000000E+00
