Mo  S Li 
 1.0000000000000000
    27.1203981867000010    0.4023603500000000   -2.4028070269000001
     0.3017446571000000   23.3624652224999991   -0.4376913698000000
    -7.1295779436000002   -0.2894054832000000   10.3645110117999995
  48 208   1
Cartesian
  9.7787408696371880  2.0703123998547710  5.6455428783109962
 18.8834564405578895 10.0330992613129517  4.5467989085760143
 20.7306406689693361 13.4284998053771929 -1.9462264491656573
 18.5955801537267931 18.7374326072885538  6.1965680624169108
  6.5394500297108840 10.8486148755065024  0.8195436892864608
 11.9884009505107265 12.5253092004292537  2.3801043892207443
 12.5032902171335358 21.3743839906544579  5.7153696547437320
 -3.3243542256154801 22.6393607572426028  7.0762278637474196
 19.7778580484027131  6.0087192931344857 -0.5253399085727282
 21.4299656100318821 21.3873062538544509  4.8776588640780059
  9.6045668194816898 22.6427166855693613 -0.4331990965574583
 18.3981200282202728 12.0976738963642809 -0.6990798670279204
 19.5570403622490510 16.1195513512117152  5.1730163023918871
 22.5037881671955908  6.4620183934118396 -0.2575421273229316
  1.2144524685687059 12.5620970355722203  5.0660511588432833
  4.7500247017516450 21.3722288195005987  8.5511592896798021
 18.8020705529736212 21.9362093164134642  5.4017389095137318
 15.3748987975147191  1.8406046565555305  0.8444644923864963
 15.8130958263570847  9.1154985457887658  3.9603157581004158
 14.4484625316237292 11.6217022322079604  0.7113100987315449
  7.2767265371787939  2.0793091055006698  2.3927164907716687
 19.4482686267325064 20.1312537968165195  3.1422319147079949
  2.3894052300232480 15.9204668229976676  4.3107068095708270
 12.7968524936159724  2.6044775169918561 -0.4618928139152019
 12.3077022318826756  1.9743613950053756  4.4048799404079997
  6.5586500706602235  4.4486372583194722  8.2889944336904549
 16.2724963532520626  4.2960736798537731 -0.4716092165155714
  6.5319264269268951  8.3066192689829421  0.0098943862232069
 22.6764505283610838 22.9441125880101424 -2.0599790181149968
 13.4054115825147697 10.2913735250123608  2.9519561014696571
  7.6239987351636902 18.2138285222018048  1.4757746007407926
 13.3627380805908071 23.1874802892592449  0.1029886824534600
 -6.1985854131625002  4.2468689289730026  9.6940480915228253
 20.4043149986906620 16.0312520949807364  2.5508798642828805
  5.6165013498312035 17.5897008586229084 -0.3638943487767195
 10.6984907188948632 23.2239620904625248  3.6969886212445604
 13.7466357393720688  0.6980027255757645  6.6793229582901397
 17.6633357984460488  3.0918389224126157  1.6514346174936729
 12.6106972686479644 20.5538307998388774  0.7848470162226842
  0.1358421850250419 10.7600636616515342  6.8202360861011613
  4.6951867603132937 15.5690628258214332  5.9428589124061038
 -3.4739979925772002  3.9137564893452081  8.9135815450324181
 -0.8045923956360018  5.0118848578650015  9.2522044926869178
  3.8603316876121090  4.1187333583518857  8.3511237061997274
  2.8511343796922493 17.7769913502962673  6.2063515642542519
  3.5192812821634041  5.7574694958353083  2.6216364056840566
 23.6664009996800537 13.8953186290335822 -2.3313098105938814
  5.4467790838938859  3.9864315307647891  1.4465585580201685
  4.5639984699789906 20.6741836843220455  1.6927848910670571
  6.4474278202001818 13.6068312675610130  5.9588661767035545
 -0.7900127989831681 18.1290820769947096  2.9673452150622963
 10.1710815657459683  2.1315402317741494  3.3521096092956029
  7.5793226316550459 21.7869966386428509  0.4860505729490362
  7.3580612415653608  4.3958462492064188  2.8136951741115168
 -3.4599617595826273 10.7954598520773288  6.3948927724954103
 17.4096571627528647  2.2006128855962372 -0.4948165176803721
 -0.7902003536488872 11.6352248943277630  4.7891353886012347
 12.9243392038946681 14.8351957368983385  6.7889851249738369
  8.4025108154241241  1.4366545163258932  0.5414989058911549
 14.3894596115060978 18.9923142972266703  1.4001144210376273
 -4.5094394188102269  6.1822058810820355  9.5557300498970594
 20.3240247371093474 18.2258677998288263  1.4132917587217895
 25.9484044135322307 13.0526049703669589 -2.1742629534642526
 16.8102514572678992 11.1933968427393697  4.2336204126532007
  1.8760358742320051  1.2504822437184349  3.8546237343056085
 -6.0401183675046051 13.9333590885832166  8.2682727470997719
 24.6331570926475507 12.5824432641383055 -0.6767315470922572
  1.9646972207231379 17.1820208948850848  2.3072737436147532
 13.5172207285403001  5.3044517311507979  5.3522802403686685
 -2.4538924577611376  1.3206031516012562  4.1252897444998027
  4.7393763371283093  9.3774301137094316  1.3629024048723424
  1.4490091463042725  5.1792825475851316  3.6857229421273279
 14.0255389410013613 10.0706830816785509  5.3006784619069220
  0.7406867566451223  3.6214989673010267  8.1260974956481817
  8.7573018004674310 17.1468666196972208  7.8064298468747069
 11.1149918944019799  4.6579144147465303  8.4776905648675864
 19.5825018119218441  8.1904251411341615 -1.1298584460044987
 21.0718510346376249  5.8641173333585241  1.4203006464343899
 21.4044183457307504  5.1653728063425044 -1.8928934444285248
  0.5133957425341930 14.3543268562600801  3.5158303142090528
  8.9465298644071876 14.6566013216197142  1.9225466361370882
 14.1082386774023814 22.0013151088139161  2.0247053107925903
 -2.0348640261006552 11.5803678509984458  7.6394977342148538
  9.6586211662231456 10.7862469158369016  8.2352804615796629
  4.2766663768564639 10.9786219078546825  3.8755055525987334
  2.0856139602894546  9.0734402066556967  6.5573738750728277
  9.2046795713963849 15.0073883281933060  7.4447479595557997
  2.9640194886666857 15.4727489628434167  1.8729739617671213
 14.2958624159721541 12.4669362998030344  3.0196521254228585
  1.6828961063114161  0.4689746517892086  5.7641326467636143
 20.0354274667630818 11.1744336870045409  0.6712220840595532
  6.8441439067269023 15.3311516033152309  4.9406221972423410
  5.0889503676672456 18.6243040663417112  1.7881405475390768
 19.9295276281325151 22.4958003738839771  3.4152279442703453
 20.1014564212865352 11.6788360040238040  3.9769606214159281
 -0.1487175044521956  6.0331646605881852  0.7833877930711305
 11.2712902364378742 22.5660771821950483  1.3793454616948075
  9.4702060821829086 16.6826101323489482  2.2902541888439694
 11.8511506986195307  2.1735995266726054  6.7485727256652543
 -3.0221225719532536  8.7919273078990123  6.3955732354592385
 21.7302660003770320  4.5738322052997633  5.0143752158688999
 22.3068725588901877  1.6583822433785060  4.1357643686018308
 -0.9745433765232089  8.6804152787262225  6.1797978421168072
  8.3023170939892648  6.6302127201532404 -0.3717180669186617
 11.2363432749370205  0.5812899764893229 -0.8620990729705840
  6.5608623438850211 13.1513882209112598 -0.0136244305314578
  7.5263542615594936 19.9898146815015139  5.0232366195080127
 10.9992814851393632 21.3513431556981566  7.5071085616489146
 11.9334964033916329 14.4834610135037352  3.6532313105004044
  8.0002016266195977  7.7069093791117034  6.2253715644135541
 14.7382853199458363  2.0581720463439344  5.2261840385237806
 18.1156281079568124  8.9944661068453868  2.5444975513097514
 21.3592926432347134 21.7700935694801494 -0.8252252917328501
  5.3807752254326662 20.3261391178837023  5.4563771130556580
 12.3229863531304176 11.3635038633840679  7.6235804045723778
 -1.7266732709340480  3.2725174263743790  4.4833903329341398
 21.4020117010429871  1.6431580710410691 -1.5362786742296073
 12.4143448755804755 18.2791998102097253  3.9666063397508622
 -1.4242494134323056 15.0232438698886455  4.0699997040204359
 -2.3530052846378711  9.6398643182106820  9.7194846340636225
  5.1432198471542669  1.6120477295241540  1.9911870421123967
 21.6651329240958930  8.5134648365918455 -0.8180470946273856
  5.3243261929204220  6.4181247014694991  1.0387224451305346
  8.0133877696098370 23.3267332746170126  3.1693070176953353
 18.8761754153708203  3.3699561216252221  3.7397687922725238
 18.4684657167842410  4.9541421585407042  6.6168786883302468
  2.4227778141621679 12.4278298631974966  0.1946541869895444
  5.5506855501925809 12.8380037773251505  1.7735473584991879
  3.7928418653969915  7.5955476095449495  4.0531288773281737
 18.7720179358573027 14.6727497185647433  3.4585585669629317
 19.6691202136697818  8.0498100376934421  3.4797987738992338
 22.9985097312096620 21.7602897912479634  3.0487899284898545
 15.5317793348255222  4.0157478419319341  1.9430243103833713
 10.0018069418346034  6.3643823531187582  3.7872134169869156
  9.7963210438390860 23.2574489810962710  5.8850240887786178
 13.1577187332753311  1.8054314498690349  1.8778477871935659
 14.4115066387621251  0.9186059286059097 -1.1411642675223108
 -2.1182885140149428 19.3777108355115786  3.9800378220637338
  2.1269701955867122 19.7788643657574355  5.1716742118575318
  9.4621769330057379  7.0944781031324382  7.6459463730534774
 24.4762455404500976 22.2572382618195839 -0.5803341227388056
 10.0468453577194321 13.7387019496356348  3.4947581312937794
 14.8942807280250289 10.8105392991474254 -1.4198553319852458
  1.3329245662475881 19.5990038583434121  7.0275184300266673
 17.9441998893099530  5.4123299150824780  0.9634937507345678
  0.6143129272976657  9.9937075003482505  9.2037369555927686
 16.7670386510522818 23.0123314418247844  1.0011022945788695
  9.6745243941369594 17.5039011749354643  0.4754523947854708
 20.0358772198032220  9.3974059576220483  6.6225903981817531
 12.8716587736714576 18.1603333642923417  0.4062281866490653
  3.4009722218725091 16.0963306888298305  7.9409461078545034
  2.1089144407688916  4.6193487401876121  6.9210572930610637
 -1.2230455374051963 21.7587893554686147  7.6565242696259190
 15.3486059714115299  6.5726273118033749 -1.2881155523706800
 -3.6255385215952716 18.0318062064892182  9.2071042311945011
 -5.0307154346687915 22.8672899175329221  8.7991361502332861
 11.1246794000867215 10.6760651372063009  3.4515213294938389
 15.5532837743385866  5.3730390076588286  5.0374591085568392
  2.2997736100286996 11.7031418398486800  7.0527111014097636
 19.7946599462431578  2.4018701819933979  2.2195166306952880
  3.3935739657034625 13.9128804303723168  5.0133829714536153
  7.6803570612792811 13.8704260172438456  7.8995239300982645
 10.1584448713788067 17.8580932057635842  6.5291777713717831
 -6.5849756591817385  2.1505400203915506 10.0821431742486300
  7.9426590194413258  9.1460219566563214  1.6107412506854144
 11.2844513900893002 19.4377448914328745  2.6978022030511304
 17.3634290610650801 20.6282782316073927  4.3095595201006383
 15.2160934300679855  9.3921635191181121  1.6643050892799931
 -2.3984904437762000 17.2157148433439176  7.7548445460560256
  5.1166132706915892  5.6675001624944192  6.6735747037254640
  9.1601318485494829  8.1520980330511534  4.6449359550124942
  1.8749718265447914  8.0930039313065372  4.7917361945175969
 18.7159295137780184 22.6573201666465920  0.2881187248885912
  8.5250834771972297  3.2568362795527293  7.5516508784866376
 14.9465166948087553 21.9259655410428635  6.1663898072690762
  8.0974514783598792 20.4238574611588533  1.9512950303218759
 20.0958389327012554 20.5474237340123338  6.8069220269058661
 19.8591965660758696 17.2308907808884690  7.3073692837673949
 15.8185518338916395 15.3752708222568657  5.0413097551031898
  1.1398498881122225  6.6811621368400589  2.3193529802754957
 24.0723734657132979  4.5249143664622471 -0.7644632230542595
 21.5393088216806419 19.2954838254617052  3.7539389837080583
 12.8262913128799312 13.4189199432303319  0.1857076466876725
 21.2680933900557889  6.5984823110812609  5.5557845020128971
 -1.9431912394078650 15.3909949436249995  8.5857122785769082
  9.0714964055396639  5.6318505852021126  2.1536713439444979
 21.6136007344432066 12.2257358682123325 -0.0924613936135422
  2.9201796674231457  4.1343748744389837  0.8541175712745797
 23.6880569532911558 20.4532946898440500  0.1770975024798444
 10.8477235770671498 10.1708010713658954 -0.0737832387046989
 17.1103185642389377  8.2581246017264096  5.9228441928700670
  4.3594605191141387 17.3608499246390799  4.5120087228143912
 17.8888903699661661 23.1452890405777651  7.3813590681145733
  2.5246393710068764 20.6022815700112716  1.2616177786636391
 -1.4319424516874950  2.7606976048904008  9.6627412171126466
  1.2962696061765795 13.9833608994855414 -0.0915293927570286
 -1.0098977095452149 22.5872559925834544  5.8082125191249396
  4.8692360711849787 19.2237665408073646  7.1588957825996671
  2.3436359377182812 11.1641079134035621  3.6410286900821971
  0.1953130489673241  6.9934294288735712  8.2747555444915530
 18.3647549772677330 17.9682006255540472  4.0463266283453310
  0.6517745480064929  0.0728216640163755  2.6317924618704649
  7.3586132740897048  1.6365911179690058  4.7780712895099855
 13.7705668420613279 19.6594349642908099  4.6808124256887345
  0.9110689224777689 16.5676714674058907  5.9315840861734470
 12.5407177185265795  4.3148495550972132  3.8505330517986573
 16.8473361533718275 12.0527466937240870  0.9923217993205846
 14.3255136481718282 16.2148794781616914  6.1298579073150412
  9.2321775944511604  4.3791422248770662  5.9257728688695952
  5.3311338733071949  2.5627106932793389  7.4920851326027273
 18.0747941858451107  9.9039470401267060  6.8588213641070128
 14.8598748175074231 13.9810810091871573  0.3176427196735300
 13.7560774936845185  4.6751680942333964  0.2068477594319793
 12.5217047875134124 20.0029591929949646  7.7947844715107841
 17.3653879655141878  3.6035549694867117  7.6475168526118038
 16.2091817799180866  6.7053635329733519  3.5955434311542982
 16.7400705770668345 18.7462713649396235  7.2498040375046928
 10.7253157902792964  3.7715708877365479  0.1284736722940838
  7.1008094386699367 11.9968113951090967  2.8737061969563387
 10.5128936999112970 20.3194505019142753 -0.4625724632354431
 18.8172479461952804 14.2914533036494547 -0.7736535294345231
  1.2968617333948111 21.4699616664315833  2.6681739087477219
 10.6399437747197521 20.8365068089836925  4.2639602249419832
 12.9986302907352993 22.9906380285518637  4.0184113411434099
  4.5936000395447181  4.2223592636672054  3.8239242415687027
 11.9441728122563653 17.9192887702118426  7.5556511325105538
 13.5218399735121526  8.2930314922937356  4.4387411504860745
 21.5107127769754705 17.0753168510291040  4.3558536879842267
 25.3103938977603384 16.7599749865709704  0.1895371026676028
  2.3188479055110482 21.8412091168551292  7.7755191153573753
  6.4163302435802674 16.1567238098294119  1.2953471184365488
  5.5413905425085606 22.1668593293708085  6.3130594809620346
 21.9583436614521510 14.7194513750290437  1.9254344583389171
 16.5521066986659307  1.1720504907071778  2.8844982001818806
  4.8919633971413177  6.2170695048728124  8.6553478139458928
 17.8881249191576046  0.7916812004622723  6.0141758160132301
 22.7085531545916091  1.9580204157276733  2.0072535019296986
 18.9504365911073762 20.6828929296186708  0.9393669016675216
 -0.1072887662104972  0.9780091944199411  6.6101634705012806
 -3.1712420408446769  1.8232446515598089  7.6854872642772110
 14.0702419252184701 21.1707265588281288 -1.0233943247142980
  5.4627025600603440 16.1845353913480778  8.1208071931447439
  0.8187812686926192 13.1049511949844124  7.4533796998181661
 10.5071382166294498 12.1270302642746497  0.4805208005849588
  7.6851173305071185 18.2461963555073083  4.0761197195871128
 17.4483329718328228 14.9943015696358213  6.3338428518694094
 -2.3097927928621305  5.3687195556059262  7.5612958742212610
 -3.8482166074872795 21.2032972619053162  8.9150210158371035
 22.3271943589206217 15.2183606512326612 -1.1549919117244150
 -1.1633341193878295  3.9056796132206077  2.6605802550550646
  7.2554351076505563 19.0134891548755576 -0.7846422307535392
 24.3365376723778546  8.0551814782889082 -0.1894739646679190
 24.1019821271173100  6.9492353132979101  1.4834869691839991
 18.9904982327215066 16.7987405530751559  0.7934579638621191
 12.7571959073776267  9.6869823129413906  0.6095550857647721
 15.2721721708661580 12.2735197909427320  6.8321576559267356
  5.0918241816968486 15.2575389696262338  3.0019377035903037
