Mo  S Li                                
   1.00000000000000     
    27.1203981867000010    0.4023603500000000   -2.4028070269000001
     0.3017446571000000   23.3624652224999991   -0.4376913698000000
    -7.1295779436000002   -0.2894054832000000   10.3645110117999995
   Mo   S    Li
    48   208     1
Direct
  0.5361368140198847  0.0877566432883850  0.6725494144620991
  0.8644896102060731  0.4226472875754674  0.6579377010677985
  0.7622711061429622  0.5622116631829677  0.0119803030828663
  0.8963520940120921  0.7988969612083991  0.8346861520507222
  0.2789809249084220  0.4617150724858237  0.1631684384377564
  0.5347331558455781  0.5314164979872340  0.3753755610356357
  0.6451782813723892  0.9126558606026844  0.7396289460278676
  0.0606892494553987  0.9772483652143586  0.7378664659866623
  0.7623371182090840  0.2458321108040830  0.1362734629595375
  0.9732151992164858  0.9079213392039269  0.7342600301169512
  0.3654851749911653  0.9636605150685721  0.0835149964483702
  0.7034561480381659  0.5074659770918165  0.1166983025235349
  0.9082921038645130  0.6852321793919508  0.7416381400027787
  0.8766791377844518  0.2638355915183611  0.1895510884927615
  0.1843106094306735  0.5413780713736975  0.5535227580337628
  0.4173267341571702  0.9193252963579205  0.9602654403967072
  0.8847738039922000  0.9329519726719951  0.7668797576190096
  0.6264841064572011  0.0709383434258440  0.2295628635626997
  0.7279146591128017  0.3846482477025943  0.5676461726816362
  0.5865241610666010  0.4903981108247705  0.2247754776498647
  0.3503419627477156  0.0868580492460621  0.3157461958851833
  0.8487938067021376  0.8536386562687428  0.5372895225455145
  0.2098849932841129  0.6838524376454856  0.4927847158749576
  0.4900236735826058  0.1041635511909044  0.0725777941445478
  0.6021679064577512  0.0814146833727000  0.5686469864694744
  0.4812506328639410  0.1937140072196494  0.9187294887630204
  0.6262636097054304  0.1745223671658604  0.1071165587863598
  0.2567255143820114  0.3522496607168989  0.0752320864945242
  0.8348541679300328  0.9680809699812083  0.0360346887004297
  0.6060213992053209  0.4356568902481182  0.4436363146753779
  0.3391298815067622  0.7767566365242825  0.2539331205427129
  0.5273469010014794  0.9852994978615401  0.1734052771658597
  0.0183325840997595  0.1935800542275203  0.9477974830597681
  0.8700502119422746  0.6773969617795371  0.4780436166044024
  0.2106795333435272  0.7496742885740526  0.0457710367349627
  0.5198814257459382  0.9915553033052742  0.5192205226095222
  0.7201301743324351  0.0274708845747281  0.8121354166607558
  0.7382979671046230  0.1237094738335672  0.3358549963000451
  0.5162382882981038  0.8734553809429424  0.2318503804269025
  0.1891176486589020  0.4661380121435363  0.7204052450348889
  0.3444857480066404  0.6687531102288345  0.6809151521550154
  0.1042746159041020  0.1767684168677817  0.8919288173069762
  0.2181233220310896  0.2226874405931332  0.9522036549567197
  0.3770473357550477  0.1812288992614742  0.9004518850934626
  0.2793216863851317  0.7645988156356548  0.6952847650620687
  0.2088232062749000  0.2469542002681716  0.3117541630195505
  0.8664701570235014  0.5800603262133545  0.0009121531239553
  0.2529051017954608  0.1689995526167999  0.2057339591482448
  0.2246921248785948  0.8846265765139985  0.2516009849926754
  0.4141731612203918  0.5837284308581294  0.6962473245404720
  0.0485403560461883  0.7791916726665653  0.3307893103833154
  0.4897164169843148  0.0882081313305849  0.4405392142032102
  0.3106573319335967  0.9288873606404704  0.1578771762911556
  0.3649823350392669  0.1862473521451605  0.3643225043188849
  0.0369889555954163  0.4694209072842280  0.6450640281111502
  0.6703627456520105  0.0840245500813483  0.1115113723715412
  0.0980905547106752  0.5025925962288754  0.5055049610412338
  0.6907419949947885  0.6336841132604045  0.8417816120404562
  0.3444228261530899  0.0569061619468571  0.1347410772574849
  0.6026868052758504  0.8062223794297336  0.3091682134864961
  0.0811926991650461  0.2747775509691896  0.9532963002801182
  0.8358793395510953  0.7701684612036420  0.3635636294434986
  0.9596895314043473  0.5416652411884866  0.0343637415000291
  0.7744267414407912  0.4730931131192955  0.6082898153718084
  0.1780170197197398  0.0556856112882550  0.4157434903894026
  0.9873274946634496  0.6074963728366771  0.8228155562218828
  0.9489360058876394  0.5242492620370196  0.1766893274696353
  0.1391224592075779  0.7372113615748034  0.2866759064255218
  0.6753196499457886  0.2239611992962711  0.6821267181822623
  0.0152443355156849  0.0612326755147763  0.4038850166839761
  0.2230189964928860  0.4003842175334751  0.2004733753416237
  0.1566709159006254  0.2240248891174939  0.4016025923932128
  0.6937748090751035  0.4276715878046878  0.6903052055630435
  0.2487199788446367  0.1616644218697442  0.8482187101276398
  0.5546644540840904  0.7354349965577575  0.9130238778687477
  0.6652462581893653  0.2004639606569915  0.9805699082463026
  0.7381291844573937  0.3388423775125777  0.0761146722977862
  0.8655489254376083  0.2408891578765155  0.3477399196915249
  0.7893637355373377  0.2080072135442664  0.0089002592038958
  0.1150143535389478  0.6172799442599177  0.3914517982962942
  0.4034208983525563  0.6240274960940837  0.3050001276319400
  0.6085469900217907  0.9354673667258940  0.3747854008446394
  0.1266408053994488  0.5030934838318579  0.7873621197166484
  0.6014282254246911  0.4631700160569124  0.9532383939949113
  0.2725677794742908  0.4708056094886105  0.4565812265252882
  0.2587204187878373  0.3928007088775839  0.7083658391632448
  0.5620039994876076  0.6435658275043580  0.8750575350287266
  0.1660830663212693  0.6633626292590364  0.2459342240529243
  0.6427101139190150  0.5281516814019134  0.4621314333337040
  0.2214761409649329  0.0235884405633702  0.6081005099761777
  0.8044404828400101  0.4679352737329769  0.2697835705784336
  0.4021672812589197  0.6564876971673718  0.5981232323788291
  0.2479636456718418  0.7965249347974106  0.2633613099174790
  0.8744574760998057  0.9547141416231159  0.5729742533056174
  0.8971874265035094  0.4918905657608217  0.6140251444799150
  0.0151972759022824  0.2591990877510341  0.0903245684143406
  0.4800051030716705  0.9608819030154914  0.2847278632635023
  0.4338770710365127  0.7107934271923987  0.3519532100282170
  0.6474435290684127  0.0919391018942716  0.8048237148333445
  0.0540756227647974  0.3834742113203487  0.6448551460381794
  0.9887268670116586  0.1875640449918986  0.7212556252155312
  0.9876195045743572  0.0617787968908230  0.6299389904822920
  0.1286993644794696  0.3774334307150508  0.6415011026475667
  0.3159082785097002  0.2791422326828083  0.0489665484298077
  0.4177182535965199  0.0177824152045149  0.0136140490569624
  0.2570941301719093  0.5593946149515979  0.0815568954863647
  0.4309376360311597  0.8558620078337091  0.6207621788956528
  0.6346524908859501  0.9136660907192664  0.9103858464620679
  0.5669984541891157  0.6163219793061934  0.5093736289391958
  0.4821930355692565  0.3305282490587206  0.7260302096358978
  0.7196534662983397  0.0844516030300907  0.6746711397723865
  0.7803997255493639  0.3773250694491531  0.4436698969819164
  0.8160662045396029  0.9197944853019067  0.1484035078308312
  0.3581887331313417  0.8715602080816202  0.6458991263553014
  0.6902646688509828  0.4858067490765340  0.9172169362836644
  0.0531663286792470  0.1447340188839947  0.4502953197774989
  0.7989996295843496  0.0570241087767306  0.0388537307816444
  0.5947824586507712  0.7788502018425943  0.5536684872943348
  0.0540542370967154  0.6472520188082925  0.4324958568172947
  0.1702408371841356  0.4224897510937948  0.9952961581666958
  0.2558153189167338  0.0677929364992664  0.2548499908257091
  0.8284004406241778  0.3514937290930125  0.1286075400539871
  0.2369247903915530  0.2725726299665449  0.1659721378643062
  0.4002093132205780  0.9971270622677205  0.4402587868499175
  0.8421684661343827  0.1365217019477350  0.5620125662910999
  0.9041203215124884  0.2073117501602408  0.8565062793699968
  0.1005323586872570  0.5312354850408616  0.0668822100998143
  0.2656259521327345  0.5481287303946549  0.2555721851862370
  0.2583247519098962  0.3266923468019926  0.4651518878426565
  0.8316019984005771  0.6207516540654808  0.5547642713158329
  0.8666681296586176  0.3366504201035096  0.5516656410463570
  0.9855108854801278  0.9214815594816461  0.5615403581905911
  0.6626187157013407  0.1648150530921525  0.3483959710344353
  0.4951333094315418  0.2701251943732743  0.4921668386023383
  0.5436156126094428  0.9950907506099302  0.7356022786271871
  0.5672455889013903  0.0712886888496309  0.3150547792331205
  0.5349000808618962  0.0302182232688806  0.0149771657006516
  0.0234886149405369  0.8341554393808917  0.4245099860535195
  0.2231029859712430  0.8498828555447869  0.5865174126043468
  0.5779396886148314  0.3045858830083611  0.8835980922010562
  0.9453144780323911  0.9388312451821325  0.2034979548814650
  0.4888319012944501  0.5851695922292949  0.4748154637887450
  0.5467814061422286  0.4536197338284543  0.0094872963468312
  0.2418470386309833  0.8440085971480326  0.7694900649559703
  0.7307828868023766  0.2223274821730961  0.2716264768513680
  0.2726350474512521  0.4351166555064833  0.9693435077995132
  0.6850544500618858  0.9770026819812754  0.2955411813494052
  0.3926953025738098  0.7442525516667162  0.1686174784839239
  0.9654016227962715  0.3961271968502641  0.8797165840391831
  0.5163150820109179  0.7704544458534778  0.1913072774226609
  0.3475646053224012  0.6937542203909954  0.8751634175692612
  0.2697510608328371  0.2027817591153731  0.7385594757946795
  0.1587236788342227  0.9388254297860885  0.8140659274754979
  0.5674910694272129  0.2716392529889196  0.0174688530105384
  0.1065689795107847  0.7817963423019367  0.9468508614399808
  0.0398916718674470  0.9893002794618310  0.8992729060123520
  0.5298686312860622  0.4535729294852699  0.4746637367206646
  0.7467600467954044  0.2256250109247669  0.6687240064098967
  0.2802181308222059  0.5052013291836596  0.7655052555445102
  0.8373887192446483  0.0932127853749937  0.4127806754953721
  0.2682185348991874  0.5977267466456605  0.5692390450190719
  0.5145467409642693  0.5962883273449812  0.9066429731367884
  0.5750649825231154  0.7643073837061940  0.7955246815320535
  0.0134695108605696  0.1043659458464445  0.9801267672046293
  0.3554667762966328  0.3886838873463478  0.2543514990021168
  0.5159565325805681  0.8278082889931803  0.4144765221533303
  0.7997633312188589  0.8751602499404714  0.6420754631204069
  0.6425842138102279  0.3952478979516559  0.3270927985204482
  0.1151563800221942  0.7446657839670388  0.8068208433653459
  0.3808217439334796  0.2453988966049514  0.7421435410857798
  0.4850954732039083  0.3479037253658882  0.5750642423558237
  0.2027221723298362  0.3493256751157603  0.5233656371171743
  0.7427975112864014  0.9597641830209043  0.2406496661879322
  0.5386602467378980  0.1406636598786961  0.8594829623781332
  0.7534992919487526  0.9353661695638339  0.8098864515580516
  0.3706195047155047  0.8715042858448575  0.3108355578811941
  0.9738383428776810  0.8744654179127223  0.9200978867821721
  0.9768721326168595  0.7342171097613837  0.9622977672496528
  0.7579158298257787  0.6538435128089488  0.6917388482553746
  0.1073989123317754  0.2874112704334176  0.2605010779041825
  0.9248486932431185  0.1802422802876568  0.1482407297999155
  0.9471740009523760  0.8170722919822084  0.6167370207925957
  0.5085288029924994  0.5677584521878249  0.1591951054364437
  0.9852593622740232  0.2751186257582717  0.7765906754824605
  0.1556216066226770  0.6670039804606647  0.8938041799180428
  0.4146024314704736  0.2381936713753358  0.3142270393245307
  0.8462159558165897  0.5114246075682394  0.2085512912507761
  0.1376571045382758  0.1760120755095644  0.1221265551126877
  0.9341145935955881  0.8626283936914358  0.2693286364441846
  0.4241054738767243  0.4294578583179766  0.1101770381570970
  0.8316496641126288  0.3487312102850398  0.7776658885797677
  0.2928300901629391  0.7445137105419983  0.5341734376598305
  0.9016265715703599  0.9870638690025859  0.9632984187649489
  0.1332204031284022  0.8825616545183466  0.1894220920938435
  0.2047439215710180  0.1270310675271943  0.9854578234407269
  0.0479523957719836  0.5978548716809744  0.0295342914211588
  0.1167076957409278  0.9729197746958795  0.6274485920388699
  0.3840142123134149  0.8260777538193762  0.8141183148268248
  0.1905807960165195  0.4793406470938743  0.4163902466696361
  0.2312524374267380  0.3061005628594545  0.8646088097506784
  0.8300091478771680  0.7613003702815115  0.6128786609911139
  0.0969452862995982  0.0050533779486098  0.2769496520317280
  0.4182971202060222  0.0698769541495858  0.5610443763932318
  0.6670543630493395  0.8379391666804946  0.6413738310294308
  0.1954361056932241  0.7139221762537412  0.6465912470605916
  0.5963797121258946  0.1807935267779285  0.5171876479349945
  0.6883250518009516  0.5067234362720824  0.2763042096822602
  0.7286420049630339  0.6917264866750797  0.7911236450495873
  0.5225171852932619  0.1872050668304798  0.7010294025173724
  0.4115553870384703  0.1130073704989178  0.8226740273776388
  0.8948766972466087  0.4195939505334547  0.8873218546533168
  0.5918958983660856  0.5907052178485158  0.1926660264490025
  0.5455818123267040  0.1927243901603627  0.1540057339910723
  0.7021000204914718  0.8555273524168552  0.9509109419919894
  0.8889376439560138  0.1509646218313393  0.9505631847860220
  0.7330672204290023  0.2810112236822297  0.5281728728666627
  0.8534040562493025  0.7996138089545179  0.9303055102950200
  0.4247012274981505  0.1556586668923013  0.1169929819653634
  0.3562904609481201  0.5120283110919460  0.3813632348978532
  0.4001526774904085  0.8637201563082257  0.0843408230864877
  0.7181465129462227  0.6007985230900579  0.1182025387494233
  0.1237637936389833  0.9212882204839956  0.3258958086717547
  0.5329812443409395  0.8895118892437014  0.5727105292369624
  0.6190435079811050  0.9806205700875493  0.5734565552253198
  0.2833026209449784  0.1813237307747003  0.4416564840008688
  0.6727749811948405  0.7663486055301999  0.9168663558726240
  0.6507697753377849  0.3510988026627430  0.5935643267140309
  0.9626050803711268  0.7227524468714197  0.6750470222442925
  0.9986891898273426  0.7034668305394230  0.2797599290590476
  0.3008823201014207  0.9403557722559752  0.8595937727568449
  0.2870052875442318  0.6891660563237108  0.2209712823617218
  0.3879011841544681  0.9509283520860643  0.7391173361951414
  0.9143032992289730  0.6197829229498383  0.4249453254828937
  0.7281382461405037  0.0433058092230726  0.4482387659126024
  0.4260002518236802  0.2706316020893377  0.9451952623738307
  0.8650511427225784  0.0285927667070179  0.7824359544594643
  0.9460772465426147  0.0728742242065434  0.4159591441753862
  0.7698282459781215  0.8757010756541227  0.3070447669719472
  0.1737760023799562  0.0474692049137858  0.6789721083623685
  0.0829909119862983  0.0861764557934129  0.7630725465545991
  0.5246297275609325  0.8974240226124652  0.0602713516079388
  0.4334455183149726  0.6965270295189698  0.9124834180204080
  0.2328659963452804  0.5664206798951814  0.7962022728489212
  0.4254784352994206  0.5139331104563305  0.1671156774899305
  0.4115937076903104  0.7804487376351407  0.5213765589404292
  0.8569039513405953  0.6379764626281547  0.8385620832884185
  0.1131889025946449  0.2372225879294914  0.7653715284529757
  0.0897517607371798  0.9175928075899464  0.9196296490368078
  0.8454340230570510  0.6382464060056454  0.1124015098152065
  0.0260730944394474  0.1704250561469534  0.2694648500773777
  0.2636037026314255  0.8094462394575773  0.0200181635066074
  0.9503635612563706  0.3311270666367447  0.2158898430304620
  0.9863006455399820  0.2849635245031513  0.3835068669900647
  0.7670577815892171  0.7091318883098617  0.2858687833377014
  0.5173101076554234  0.4088062914841631  0.1960261108809076
  0.7845322547613728  0.5224451235803342  0.8640767221307838
  0.2802709918869153  0.6525274530337026  0.3824393373257133
 
  0.00000000E+00  0.00000000E+00  0.00000000E+00
  0.00000000E+00  0.00000000E+00  0.00000000E+00
  0.00000000E+00  0.00000000E+00  0.00000000E+00
  0.00000000E+00  0.00000000E+00  0.00000000E+00
  0.00000000E+00  0.00000000E+00  0.00000000E+00
  0.00000000E+00  0.00000000E+00  0.00000000E+00
  0.00000000E+00  0.00000000E+00  0.00000000E+00
  0.00000000E+00  0.00000000E+00  0.00000000E+00
  0.00000000E+00  0.00000000E+00  0.00000000E+00
  0.00000000E+00  0.00000000E+00  0.00000000E+00
  0.00000000E+00  0.00000000E+00  0.00000000E+00
  0.00000000E+00  0.00000000E+00  0.00000000E+00
  0.00000000E+00  0.00000000E+00  0.00000000E+00
  0.00000000E+00  0.00000000E+00  0.00000000E+00
  0.00000000E+00  0.00000000E+00  0.00000000E+00
  0.00000000E+00  0.00000000E+00  0.00000000E+00
  0.00000000E+00  0.00000000E+00  0.00000000E+00
  0.00000000E+00  0.00000000E+00  0.00000000E+00
  0.00000000E+00  0.00000000E+00  0.00000000E+00
  0.00000000E+00  0.00000000E+00  0.00000000E+00
  0.00000000E+00  0.00000000E+00  0.00000000E+00
  0.00000000E+00  0.00000000E+00  0.00000000E+00
  0.00000000E+00  0.00000000E+00  0.00000000E+00
  0.00000000E+00  0.00000000E+00  0.00000000E+00
  0.00000000E+00  0.00000000E+00  0.00000000E+00
  0.00000000E+00  0.00000000E+00  0.00000000E+00
  0.00000000E+00  0.00000000E+00  0.00000000E+00
  0.00000000E+00  0.00000000E+00  0.00000000E+00
  0.00000000E+00  0.00000000E+00  0.00000000E+00
  0.00000000E+00  0.00000000E+00  0.00000000E+00
  0.00000000E+00  0.00000000E+00  0.00000000E+00
  0.00000000E+00  0.00000000E+00  0.00000000E+00
  0.00000000E+00  0.00000000E+00  0.00000000E+00
  0.00000000E+00  0.00000000E+00  0.00000000E+00
  0.00000000E+00  0.00000000E+00  0.00000000E+00
  0.00000000E+00  0.00000000E+00  0.00000000E+00
  0.00000000E+00  0.00000000E+00  0.00000000E+00
  0.00000000E+00  0.00000000E+00  0.00000000E+00
  0.00000000E+00  0.00000000E+00  0.00000000E+00
  0.00000000E+00  0.00000000E+00  0.00000000E+00
  0.00000000E+00  0.00000000E+00  0.00000000E+00
  0.00000000E+00  0.00000000E+00  0.00000000E+00
  0.00000000E+00  0.00000000E+00  0.00000000E+00
  0.00000000E+00  0.00000000E+00  0.00000000E+00
  0.00000000E+00  0.00000000E+00  0.00000000E+00
  0.00000000E+00  0.00000000E+00  0.00000000E+00
  0.00000000E+00  0.00000000E+00  0.00000000E+00
  0.00000000E+00  0.00000000E+00  0.00000000E+00
  0.00000000E+00  0.00000000E+00  0.00000000E+00
  0.00000000E+00  0.00000000E+00  0.00000000E+00
  0.00000000E+00  0.00000000E+00  0.00000000E+00
  0.00000000E+00  0.00000000E+00  0.00000000E+00
  0.00000000E+00  0.00000000E+00  0.00000000E+00
  0.00000000E+00  0.00000000E+00  0.00000000E+00
  0.00000000E+00  0.00000000E+00  0.00000000E+00
  0.00000000E+00  0.00000000E+00  0.00000000E+00
  0.00000000E+00  0.00000000E+00  0.00000000E+00
  0.00000000E+00  0.00000000E+00  0.00000000E+00
  0.00000000E+00  0.00000000E+00  0.00000000E+00
  0.00000000E+00  0.00000000E+00  0.00000000E+00
  0.00000000E+00  0.00000000E+00  0.00000000E+00
  0.00000000E+00  0.00000000E+00  0.00000000E+00
  0.00000000E+00  0.00000000E+00  0.00000000E+00
  0.00000000E+00  0.00000000E+00  0.00000000E+00
  0.00000000E+00  0.00000000E+00  0.00000000E+00
  0.00000000E+00  0.00000000E+00  0.00000000E+00
  0.00000000E+00  0.00000000E+00  0.00000000E+00
  0.00000000E+00  0.00000000E+00  0.00000000E+00
  0.00000000E+00  0.00000000E+00  0.00000000E+00
  0.00000000E+00  0.00000000E+00  0.00000000E+00
  0.00000000E+00  0.00000000E+00  0.00000000E+00
  0.00000000E+00  0.00000000E+00  0.00000000E+00
  0.00000000E+00  0.00000000E+00  0.00000000E+00
  0.00000000E+00  0.00000000E+00  0.00000000E+00
  0.00000000E+00  0.00000000E+00  0.00000000E+00
  0.00000000E+00  0.00000000E+00  0.00000000E+00
  0.00000000E+00  0.00000000E+00  0.00000000E+00
  0.00000000E+00  0.00000000E+00  0.00000000E+00
  0.00000000E+00  0.00000000E+00  0.00000000E+00
  0.00000000E+00  0.00000000E+00  0.00000000E+00
  0.00000000E+00  0.00000000E+00  0.00000000E+00
  0.00000000E+00  0.00000000E+00  0.00000000E+00
  0.00000000E+00  0.00000000E+00  0.00000000E+00
  0.00000000E+00  0.00000000E+00  0.00000000E+00
  0.00000000E+00  0.00000000E+00  0.00000000E+00
  0.00000000E+00  0.00000000E+00  0.00000000E+00
  0.00000000E+00  0.00000000E+00  0.00000000E+00
  0.00000000E+00  0.00000000E+00  0.00000000E+00
  0.00000000E+00  0.00000000E+00  0.00000000E+00
  0.00000000E+00  0.00000000E+00  0.00000000E+00
  0.00000000E+00  0.00000000E+00  0.00000000E+00
  0.00000000E+00  0.00000000E+00  0.00000000E+00
  0.00000000E+00  0.00000000E+00  0.00000000E+00
  0.00000000E+00  0.00000000E+00  0.00000000E+00
  0.00000000E+00  0.00000000E+00  0.00000000E+00
  0.00000000E+00  0.00000000E+00  0.00000000E+00
  0.00000000E+00  0.00000000E+00  0.00000000E+00
  0.00000000E+00  0.00000000E+00  0.00000000E+00
  0.00000000E+00  0.00000000E+00  0.00000000E+00
  0.00000000E+00  0.00000000E+00  0.00000000E+00
  0.00000000E+00  0.00000000E+00  0.00000000E+00
  0.00000000E+00  0.00000000E+00  0.00000000E+00
  0.00000000E+00  0.00000000E+00  0.00000000E+00
  0.00000000E+00  0.00000000E+00  0.00000000E+00
  0.00000000E+00  0.00000000E+00  0.00000000E+00
  0.00000000E+00  0.00000000E+00  0.00000000E+00
  0.00000000E+00  0.00000000E+00  0.00000000E+00
  0.00000000E+00  0.00000000E+00  0.00000000E+00
  0.00000000E+00  0.00000000E+00  0.00000000E+00
  0.00000000E+00  0.00000000E+00  0.00000000E+00
  0.00000000E+00  0.00000000E+00  0.00000000E+00
  0.00000000E+00  0.00000000E+00  0.00000000E+00
  0.00000000E+00  0.00000000E+00  0.00000000E+00
  0.00000000E+00  0.00000000E+00  0.00000000E+00
  0.00000000E+00  0.00000000E+00  0.00000000E+00
  0.00000000E+00  0.00000000E+00  0.00000000E+00
  0.00000000E+00  0.00000000E+00  0.00000000E+00
  0.00000000E+00  0.00000000E+00  0.00000000E+00
  0.00000000E+00  0.00000000E+00  0.00000000E+00
  0.00000000E+00  0.00000000E+00  0.00000000E+00
  0.00000000E+00  0.00000000E+00  0.00000000E+00
  0.00000000E+00  0.00000000E+00  0.00000000E+00
  0.00000000E+00  0.00000000E+00  0.00000000E+00
  0.00000000E+00  0.00000000E+00  0.00000000E+00
  0.00000000E+00  0.00000000E+00  0.00000000E+00
  0.00000000E+00  0.00000000E+00  0.00000000E+00
  0.00000000E+00  0.00000000E+00  0.00000000E+00
  0.00000000E+00  0.00000000E+00  0.00000000E+00
  0.00000000E+00  0.00000000E+00  0.00000000E+00
  0.00000000E+00  0.00000000E+00  0.00000000E+00
  0.00000000E+00  0.00000000E+00  0.00000000E+00
  0.00000000E+00  0.00000000E+00  0.00000000E+00
  0.00000000E+00  0.00000000E+00  0.00000000E+00
  0.00000000E+00  0.00000000E+00  0.00000000E+00
  0.00000000E+00  0.00000000E+00  0.00000000E+00
  0.00000000E+00  0.00000000E+00  0.00000000E+00
  0.00000000E+00  0.00000000E+00  0.00000000E+00
  0.00000000E+00  0.00000000E+00  0.00000000E+00
  0.00000000E+00  0.00000000E+00  0.00000000E+00
  0.00000000E+00  0.00000000E+00  0.00000000E+00
  0.00000000E+00  0.00000000E+00  0.00000000E+00
  0.00000000E+00  0.00000000E+00  0.00000000E+00
  0.00000000E+00  0.00000000E+00  0.00000000E+00
  0.00000000E+00  0.00000000E+00  0.00000000E+00
  0.00000000E+00  0.00000000E+00  0.00000000E+00
  0.00000000E+00  0.00000000E+00  0.00000000E+00
  0.00000000E+00  0.00000000E+00  0.00000000E+00
  0.00000000E+00  0.00000000E+00  0.00000000E+00
  0.00000000E+00  0.00000000E+00  0.00000000E+00
  0.00000000E+00  0.00000000E+00  0.00000000E+00
  0.00000000E+00  0.00000000E+00  0.00000000E+00
  0.00000000E+00  0.00000000E+00  0.00000000E+00
  0.00000000E+00  0.00000000E+00  0.00000000E+00
  0.00000000E+00  0.00000000E+00  0.00000000E+00
  0.00000000E+00  0.00000000E+00  0.00000000E+00
  0.00000000E+00  0.00000000E+00  0.00000000E+00
  0.00000000E+00  0.00000000E+00  0.00000000E+00
  0.00000000E+00  0.00000000E+00  0.00000000E+00
  0.00000000E+00  0.00000000E+00  0.00000000E+00
  0.00000000E+00  0.00000000E+00  0.00000000E+00
  0.00000000E+00  0.00000000E+00  0.00000000E+00
  0.00000000E+00  0.00000000E+00  0.00000000E+00
  0.00000000E+00  0.00000000E+00  0.00000000E+00
  0.00000000E+00  0.00000000E+00  0.00000000E+00
  0.00000000E+00  0.00000000E+00  0.00000000E+00
  0.00000000E+00  0.00000000E+00  0.00000000E+00
  0.00000000E+00  0.00000000E+00  0.00000000E+00
  0.00000000E+00  0.00000000E+00  0.00000000E+00
  0.00000000E+00  0.00000000E+00  0.00000000E+00
  0.00000000E+00  0.00000000E+00  0.00000000E+00
  0.00000000E+00  0.00000000E+00  0.00000000E+00
  0.00000000E+00  0.00000000E+00  0.00000000E+00
  0.00000000E+00  0.00000000E+00  0.00000000E+00
  0.00000000E+00  0.00000000E+00  0.00000000E+00
  0.00000000E+00  0.00000000E+00  0.00000000E+00
  0.00000000E+00  0.00000000E+00  0.00000000E+00
  0.00000000E+00  0.00000000E+00  0.00000000E+00
  0.00000000E+00  0.00000000E+00  0.00000000E+00
  0.00000000E+00  0.00000000E+00  0.00000000E+00
  0.00000000E+00  0.00000000E+00  0.00000000E+00
  0.00000000E+00  0.00000000E+00  0.00000000E+00
  0.00000000E+00  0.00000000E+00  0.00000000E+00
  0.00000000E+00  0.00000000E+00  0.00000000E+00
  0.00000000E+00  0.00000000E+00  0.00000000E+00
  0.00000000E+00  0.00000000E+00  0.00000000E+00
  0.00000000E+00  0.00000000E+00  0.00000000E+00
  0.00000000E+00  0.00000000E+00  0.00000000E+00
  0.00000000E+00  0.00000000E+00  0.00000000E+00
  0.00000000E+00  0.00000000E+00  0.00000000E+00
  0.00000000E+00  0.00000000E+00  0.00000000E+00
  0.00000000E+00  0.00000000E+00  0.00000000E+00
  0.00000000E+00  0.00000000E+00  0.00000000E+00
  0.00000000E+00  0.00000000E+00  0.00000000E+00
  0.00000000E+00  0.00000000E+00  0.00000000E+00
  0.00000000E+00  0.00000000E+00  0.00000000E+00
  0.00000000E+00  0.00000000E+00  0.00000000E+00
  0.00000000E+00  0.00000000E+00  0.00000000E+00
  0.00000000E+00  0.00000000E+00  0.00000000E+00
  0.00000000E+00  0.00000000E+00  0.00000000E+00
  0.00000000E+00  0.00000000E+00  0.00000000E+00
  0.00000000E+00  0.00000000E+00  0.00000000E+00
  0.00000000E+00  0.00000000E+00  0.00000000E+00
  0.00000000E+00  0.00000000E+00  0.00000000E+00
  0.00000000E+00  0.00000000E+00  0.00000000E+00
  0.00000000E+00  0.00000000E+00  0.00000000E+00
  0.00000000E+00  0.00000000E+00  0.00000000E+00
  0.00000000E+00  0.00000000E+00  0.00000000E+00
  0.00000000E+00  0.00000000E+00  0.00000000E+00
  0.00000000E+00  0.00000000E+00  0.00000000E+00
  0.00000000E+00  0.00000000E+00  0.00000000E+00
  0.00000000E+00  0.00000000E+00  0.00000000E+00
  0.00000000E+00  0.00000000E+00  0.00000000E+00
  0.00000000E+00  0.00000000E+00  0.00000000E+00
  0.00000000E+00  0.00000000E+00  0.00000000E+00
  0.00000000E+00  0.00000000E+00  0.00000000E+00
  0.00000000E+00  0.00000000E+00  0.00000000E+00
  0.00000000E+00  0.00000000E+00  0.00000000E+00
  0.00000000E+00  0.00000000E+00  0.00000000E+00
  0.00000000E+00  0.00000000E+00  0.00000000E+00
  0.00000000E+00  0.00000000E+00  0.00000000E+00
  0.00000000E+00  0.00000000E+00  0.00000000E+00
  0.00000000E+00  0.00000000E+00  0.00000000E+00
  0.00000000E+00  0.00000000E+00  0.00000000E+00
  0.00000000E+00  0.00000000E+00  0.00000000E+00
  0.00000000E+00  0.00000000E+00  0.00000000E+00
  0.00000000E+00  0.00000000E+00  0.00000000E+00
  0.00000000E+00  0.00000000E+00  0.00000000E+00
  0.00000000E+00  0.00000000E+00  0.00000000E+00
  0.00000000E+00  0.00000000E+00  0.00000000E+00
  0.00000000E+00  0.00000000E+00  0.00000000E+00
  0.00000000E+00  0.00000000E+00  0.00000000E+00
  0.00000000E+00  0.00000000E+00  0.00000000E+00
  0.00000000E+00  0.00000000E+00  0.00000000E+00
  0.00000000E+00  0.00000000E+00  0.00000000E+00
  0.00000000E+00  0.00000000E+00  0.00000000E+00
  0.00000000E+00  0.00000000E+00  0.00000000E+00
  0.00000000E+00  0.00000000E+00  0.00000000E+00
  0.00000000E+00  0.00000000E+00  0.00000000E+00
  0.00000000E+00  0.00000000E+00  0.00000000E+00
  0.00000000E+00  0.00000000E+00  0.00000000E+00
  0.00000000E+00  0.00000000E+00  0.00000000E+00
  0.00000000E+00  0.00000000E+00  0.00000000E+00
  0.00000000E+00  0.00000000E+00  0.00000000E+00
  0.00000000E+00  0.00000000E+00  0.00000000E+00
  0.00000000E+00  0.00000000E+00  0.00000000E+00
  0.00000000E+00  0.00000000E+00  0.00000000E+00
  0.00000000E+00  0.00000000E+00  0.00000000E+00
  0.00000000E+00  0.00000000E+00  0.00000000E+00
  0.00000000E+00  0.00000000E+00  0.00000000E+00
  0.00000000E+00  0.00000000E+00  0.00000000E+00
  0.00000000E+00  0.00000000E+00  0.00000000E+00
  0.00000000E+00  0.00000000E+00  0.00000000E+00
  0.00000000E+00  0.00000000E+00  0.00000000E+00
  0.00000000E+00  0.00000000E+00  0.00000000E+00
  0.00000000E+00  0.00000000E+00  0.00000000E+00
  0.00000000E+00  0.00000000E+00  0.00000000E+00
  0.00000000E+00  0.00000000E+00  0.00000000E+00
