Mo  S Li 
 1.0000000000000000
    27.1203981867000010    0.4023603500000000   -2.4028070269000001
     0.3017446571000000   23.3624652224999991   -0.4376913698000000
    -7.1295779436000002   -0.2894054832000000   10.3645110117999995
  48 208   1
Cartesian
  9.7786226593142072  2.0690664065835409  5.6435835345452237
 18.8821227639167084 10.0339351762023057  4.5509028210613147
 20.7347976521516344 13.4300971288456683 -1.9439372856680128
 18.5955192746586384 18.7437671746252086  6.2012702828400377
  6.5400588397940052 10.8495626606254891  0.8178660785609908
 11.9885127792554371 12.5257484728342572  2.3802405248429808
 12.5028443084285374 21.3734720686838102  5.7136860934769160
 -3.3235649787731134 22.6422779673549321  7.0733619937992689
 19.7770165477888717  6.0092159529110312 -0.5261393254356852
 21.4300270538452082 21.3912085697510648  4.8771046838717211
  9.6042644511580217 22.6415744676952002 -0.4347552981262688
 18.4004855663844751 12.0979316010984146 -0.6965881542996363
 19.5615229976383986 16.1221001412934903  5.1810642083882836
 22.5027356690452756  6.4632432765404069 -0.2581729528090090
  1.2145092842224279 12.5587683791079439  5.0620994470369354
  4.7487440681747186 21.3707288770227208  8.5492166330702712
 18.8017166601138754 21.9396862524339546  5.4031121686019068
 15.3750112585986756  1.8388438158759064  0.8425580071533071
 15.8117434876715350  9.1160317070427705  3.9616037299947506
 14.4490223757922234 11.6216831096344695  0.7117165935368737
  7.2773263757187499  2.0784383624298699  2.3911185900959242
 19.4483087655837146 20.1326662000744818  3.1439086009285679
  2.3862549915082276 15.9216504224929309  4.3040494916480121
 12.7971277441669127  2.6031516385181850 -0.4636447178061165
 12.3073937281309007  1.9732673765778974  4.4028489975938312
  6.5590397385224675  4.4474715440548067  8.2881611187403053
 16.2727190055318189  4.2944444539001667 -0.4730193667912284
  6.5322333563919406  8.3074867367264211  0.0085687696161972
 22.6746611355821557 22.9454821314753481 -2.0600173642539947
 13.4053657680287213 10.2920117513568208  2.9522133365082159
  7.6235194931797361 18.2129951562279508  1.4769240882408472
 13.3624173527607653 23.1856360684359188  0.1005890728250403
 -6.1980265764332740  4.2483116448074387  9.6933321712617939
 20.4035929454340419 16.0315963379199040  2.5586384838903187
  5.6132570647977937 17.5891965792404470 -0.3599944764842075
 10.6983039724201792 23.2221209934156718  3.6957358456526137
 13.7469441717433813  0.6989020780663426  6.6774917419480060
 17.6633232970950758  3.0898329712302921  1.6502724413814709
 12.6102326368649500 20.5522876302649564  0.7831583604962525
  0.1368956928682923 10.7587349720654526  6.8184535289097070
  4.6910932133521674 15.5678543502479680  5.9381954137415818
 -3.4734828675796745  3.9140552835219800  8.9127606176078960
 -0.8038353223836954  5.0122294139856356  9.2514780967383601
  3.8606703757170302  4.1184207312217307  8.3499526347885347
  2.8479123175181624 17.7752008821046239  6.2024633092407981
  3.5204180879709210  5.7571641035000871  2.6207510938421912
 23.6664318109217717 13.8957840918426374 -2.3280277585096774
  5.4474579349579368  3.9861610699009198  1.4454058347618004
  4.5668806916914324 20.6804362610456494  1.6903847574255748
  6.4421683860042540 13.6039736293051252  5.9582629612641682
 -0.7986598531177652 18.1296678928225745  2.9696395680818557
 10.1708428262932955  2.1296341521715298  3.3502247904039320
  7.5802049378800840 21.7855381913052533  0.4860429942868166
  7.3588735279572388  4.3948769960053946  2.8123133305565013
 -3.4592768981958839 10.7943746536632386  6.3923887955094152
 17.4101081475786081  2.1990908507312419 -0.4963366579624678
 -0.7900613287150383 11.6313690263087253  4.7864338283803987
 12.9266168390988412 14.8360396203807525  6.7922976950053213
  8.4030913554435802  1.4358039807863210  0.5400898081470562
 14.3894329719125444 18.9907734307390434  1.3972033311246437
 -4.5076808760994478  6.1831261565136764  9.5549629664003266
 20.3188003478529460 18.2235937575796640  1.4168644426894899
 25.9435753039902863 13.0364276122543590 -2.1838735041606823
 16.8089628544120018 11.1938382027889691  4.2364072277622427
  1.8802000923220135  1.2545965551690066  3.8563085009019753
 -6.0204528490656921 13.9521073624606977  8.2874665110649168
 24.6353170976788576 12.5811061966559041 -0.6758166461702635
  1.9576619442063921 17.1940022142607596  2.3081750700829424
 13.5147287211630385  5.3046514708019199  5.3493123187174145
 -2.4539231824450844  1.3212492346932605  4.1199926735883938
  4.7399214566886156  9.3784807118187512  1.3618651989710198
  1.4496176829920970  5.1788389421077969  3.6842428119830850
 14.0244441249677205 10.0722293596627921  5.3010867842105140
  0.7418575037754254  3.6219168347212873  8.1257095885891264
  8.7546343382824343 17.1459393643035760  7.8029561262528464
 11.1151166087758178  4.6569502535460812  8.4766853189942566
 19.5811890616319069  8.1910441568273775 -1.1306866075864734
 21.0707416471879263  5.8643191707018056  1.4194335055209444
 21.4038099334439842  5.1665052503526550 -1.8936799109133120
  0.5122524311309606 14.3512255874203110  3.5115679607097663
  8.9473565048522072 14.6563254766863729  1.9222697075079551
 14.1080012462768867 21.9998121120272643  2.0225312900626204
 -2.0340043232796448 11.5790029633719040  7.6369819547435993
  9.6607946333999379 10.7866375846366687  8.2371686004865996
  4.2785560654678862 10.9769032991183746  3.8749532016965498
  2.0868202282521047  9.0723832898155194  6.5571973415122393
  9.2013120589832518 15.0057580665375045  7.4427768618752390
  2.9578510578913901 15.4898959350720400  1.8588678011453501
 14.2958064316787610 12.4678021104509380  3.0197590723353644
  1.6847556926149516  0.4725292412192127  5.7656617020038023
 20.0367859745347445 11.1731601611230467  0.6739398012755033
  6.8391845187225684 15.3261679349239461  4.9370374004875304
  5.0889757941286486 18.6298929101432194  1.7897079797098616
 19.9273856396734246 22.4984621812501082  3.4154552601238071
 20.1002529075797511 11.6824996620186088  3.9888112936137170
 -0.1472886510591121  6.0353527042112844  0.7824276179504819
 11.2710959190654343 22.5646932453274900  1.3778210654043104
  9.4707259091118310 16.6824220682440583  2.2897333301761567
 11.8509667237274137  2.1729870963889373  6.7466892270787095
 -3.0218393674626545  8.7908563934775401  6.3943868037848439
 21.7307358456138076  4.5749674373498408  5.0136494913256797
 22.3078681274653654  1.6609766466212252  4.1323659762743343
 -0.9741553888677679  8.6790752362413599  6.1792224139412308
  8.3027293647678508  6.6306162241896072 -0.3720773489373359
 11.2362659406006671  0.5800537210583507 -0.8642353388760455
  6.5623977751741798 13.1530480804556493 -0.0158217357320339
  7.5245832820065672 19.9891521031102428  5.0226335712732650
 10.9991645081640357 21.3520236146311113  7.5058414511068259
 11.9335548421057887 14.4835341946434166  3.6540562606153677
  8.0007588255305606  7.7060320474120463  6.2248177230336381
 14.7382177730921011  2.0584461068462527  5.2237009417436298
 18.1163701816171105  8.9980130039362223  2.5464049250453340
 21.3537438127851829 21.7763305791535799 -0.8247381481468592
  5.3784337865423941 20.3244492105609922  5.4541497847721336
 12.3241048563956745 11.3660596016449507  7.6252518395373334
 -1.7254403827248346  3.2722041135055107  4.4799973485560241
 21.4036760877774235  1.6464596476969862 -1.5393093932824689
 12.4158997506176245 18.2778131094034215  3.9653260102328631
 -1.4254092383473831 15.0192832729521157  4.0662454115362845
 -2.3529260244214862  9.6408237804480272  9.7182519712333679
  5.1439741608446461  1.6113739891748833  1.9888651584455084
 21.6635244905287330  8.5144926816492159 -0.8187400456043408
  5.3249966226909580  6.4184020792336138  1.0378400290795198
  8.0132917077284329 23.3255243524801337  3.1676306789879969
 18.8743702879738535  3.3675538131092284  3.7400055042847664
 18.4692987288932535  4.9568461540969677  6.6152588278928830
  2.4136986241818663 12.4295267543095793  0.2147522308421093
  5.5527207499316704 12.8398839949212586  1.7712732147426464
  3.7937213375819305  7.5948972868872451  4.0529155856450245
 18.7723305576900223 14.6747124975466718  3.4735372538531544
 19.6694747954394096  8.0527215497980151  3.4814491463503914
 22.9967037895511623 21.7640724744560004  3.0462867411507659
 15.5317401965214774  4.0136549956331606  1.9413370114760624
 10.0024189383970565  6.3642166120974384  3.7864949316168324
  9.7960009429834081 23.2564419600356942  5.8836711745235268
 13.1578376652553644  1.8037902369660428  1.8756815978300005
 14.4115834634900093  0.9169877965918516 -1.1431887434804473
 -2.1310260056624375 19.3738491793863226  3.9816161571416773
  2.1228766089417221 19.7785985510851177  5.1709794579543820
  9.4631280243033356  7.0921208336997861  7.6444253529019655
 24.4720739646715515 22.2533916244356114 -0.5796492813616744
 10.0470254486706612 13.7386099753248931  3.4948116909515101
 14.8963483983419795 10.8101107141624873 -1.4190991804086246
  1.3306541323960615 19.5959697337099854  7.0274277179839100
 17.9441347099820270  5.4105748541657084  0.9626593733041395
  0.6147944574421060  9.9941418295581297  9.2022897123193648
 16.7663225726396803 23.0104935626783664  0.9991840861047419
  9.6729887197661757 17.5029191705355451  0.4744306795951626
 20.0319340508332751  9.3943824145693267  6.6268554786925851
 12.8710454415642594 18.1588782488370768  0.4039037878169614
  3.3956915747523952 16.0938922451548869  7.9364395834072630
  2.1094501028661670  4.6199659799652322  6.9200752003153365
 -1.2225043361379981 21.7597047564235631  7.6521096447227155
 15.3493407003148459  6.5711009045030533 -1.2892502985539489
 -3.6281251703324759 18.0341373300269403  9.2110809199976824
 -5.0283391298001723 22.8708578339436208  8.7977561327217995
 11.1247312902119102 10.6768980551476460  3.4520756275293514
 15.5509170104880514  5.3737231430661563  5.0346680535231929
  2.3007848251725709 11.7031567592476815  7.0494983528629005
 19.7939241987378942  2.3994871075376270  2.2205940864240432
  3.3906744980508496 13.9130546556526458  5.0026437213850938
  7.6768686446842498 13.8699345466459310  7.8994325279422073
 10.1576732975390449 17.8567209580934829  6.5277753114714203
 -6.5857659038944689  2.1522437352369641 10.0817494208963225
  7.9425040014776123  9.1468962551265474  1.6099149998292193
 11.2851986163355882 19.4356454715031042  2.6967520230419253
 17.3630827005153385 20.6310652757397435  4.3119585234385776
 15.2163668084246755  9.3923313701743272  1.6653908012500322
 -2.4031537503496918 17.2133515753243600  7.7597376100661561
  5.1179427492490426  5.6671679834101356  6.6729439581319587
  9.1604703229929445  8.1516696152039998  4.6443400301768634
  1.8759385073215511  8.0934359562368421  4.7907843931242207
 18.7158605003017087 22.6565687138149912  0.2868265855989741
  8.5252257856732303  3.2559867285060089  7.5498403102630265
 14.9459449587621904 21.9264775563901111  6.1665719819422344
  8.0999227637152096 20.4227393741240597  1.9509302842404346
 20.0971719101087949 20.5537479874622129  6.8085390165828032
 19.8595665680770814 17.2396732759758500  7.3140654079365097
 15.8223934234157202 15.3812471667277073  5.0495693000733786
  1.1414732508451870  6.6817063570898174  2.3188603711013647
 24.0722167653150123  4.5276439128400439 -0.7663241487455255
 21.5400598879713563 19.2989691335568629  3.7545918856183356
 12.8266067905995591 13.4184396310292886  0.1852589582426734
 21.2699661590876268  6.5997464846093896  5.5551053108221806
 -1.9492698586401296 15.3888631652988117  8.5918832637613214
  9.0722621767885823  5.6316105206908258  2.1528441289243632
 21.6147031302942807 12.2248850248400895 -0.0896195929025293
  2.9207320664889678  4.1345450087305178  0.8531634113595236
 23.6785320996998117 20.4514387787519460  0.1764899476750103
 10.8480592066539323 10.1705994646045017 -0.0736466920757682
 17.1076365593944502  8.2547741995947774  5.9220220628505054
  4.3571638894691036 17.3610199514111940  4.5085591969104586
 17.8887158933373627 23.1472379399749428  7.3834612156660384
  2.5279523256794794 20.6109637577008513  1.2598057306383423
 -1.4312940165168191  2.7609241797260462  9.6615360733612050
  1.2793802372488841 13.9799420144052924 -0.0684546523297769
 -1.0088490780197472 22.5891715928413994  5.8043973958418107
  4.8659553493951977 19.2220547683021117  7.1563466206089883
  2.3454478074898284 11.1598266936944146  3.6394432532547429
  0.1960351428685995  6.9935840895130230  8.2739609505933736
 18.3681000768608165 17.9724506969042892  4.0523683069985763
  0.6547074421157660  0.0787311978726645  2.6335840118019789
  7.3585181513500286  1.6353339688220090  4.7764948365732129
 13.7710941482826961 19.6589111107041710  4.6798144320116011
  0.9076191984839475 16.5662926014388390  5.9248977149672415
 12.5394037663755107  4.3137434177242593  3.8476937950582002
 16.8480159304938155 12.0509658447363588  0.9931357114506126
 14.3267637419753573 16.2188603164926057  6.1356668443812801
  9.2328596738254411  4.3780625002784559  5.9241034994166277
  5.3309302046539502  2.5621145161485819  7.4904301431952627
 18.0703043231285818  9.8998584988787748  6.8610084142140808
 14.8598895053900737 13.9809312331486364  0.3165109337135466
 13.7563353111844489  4.6736392698903302  0.2059084429021019
 12.5206933929407782 20.0025311591662813  7.7938702669490851
 17.3650218222779671  3.6070286538707461  7.6453002687249301
 16.2055937680450199  6.7057352071255965  3.5921595072087222
 16.7393676469520223 18.7529690168677305  7.2529069805654522
 10.7260202237580025  3.7709883995777815  0.1272655954118956
  7.1024544762402551 11.9985234819870357  2.8716259711731458
 10.5121130952950086 20.3180843124395771 -0.4638933805290716
 18.8176794721148184 14.2914046999145938 -0.7726044476439206
  1.2996953420827146 21.4753558786696317  2.6683590474092087
 10.6400191245665798 20.8346293082047289  4.2630496659621553
 12.9987964131628981 22.9894780989270053  4.0170457456437143
  4.5944083328872418  4.2215503756463457  3.8228045019346677
 11.9419419465698944 17.9192240712261146  7.5572534314864717
 13.5206832656231821  8.2940784776952228  4.4403122245012474
 21.5125363789688144 17.0788809309010539  4.3594212803775942
 25.3065579147101793 16.7579483076118052  0.1885692001042357
  2.3174650326739195 21.8398214193390032  7.7744289794204118
  6.4135382907510659 16.1578277824074057  1.3010165205148629
  5.5382271638273393 22.1653226745963785  6.3107319537328284
 21.9549335837007256 14.7181869294153103  1.9306325895085987
 16.5513998202905945  1.1700823205559687  2.8828181837303357
  4.8928228995823924  6.2164560835789082  8.6547049054797789
 17.8873950285348506  0.7947110227209052  6.0169962170112283
 22.7087319472934475  1.9599000700513198  2.0038953853343910
 18.9510800268829627 20.6825252430837239  0.9404654424294188
 -0.1071345255545453  0.9803835877116394  6.6083784843644455
 -3.1702898301691333  1.8249496944224604  7.6831430650820671
 14.0688468319324347 21.1686973088128880 -1.0259837433047423
  5.4574702267405257 16.1825090993507814  8.1169153953271014
  0.8193904416414838 13.1050869329700870  7.4483632036924456
 10.5069806116857372 12.1267341397348165  0.4807665471592560
  7.6849682252685616 18.2449382942739291  4.0769637654497979
 17.4510045178493733 15.0007505908208589  6.3444451717543000
 -2.3086133738840506  5.3682260435150191  7.5598963967343815
 -3.8464537147241846 21.2062482639787255  8.9120960149317536
 22.3277848762718847 15.2164838736638632 -1.1466074874202035
 -1.1631416269364410  3.9081109853040750  2.6576583916443588
  7.2533398189297609 19.0103346855694291 -0.7843770000569108
 24.3360210325685955  8.0557472454731407 -0.1896687818732986
 24.1011947548224619  6.9491832290406048  1.4828399210737286
 18.9831533707069013 16.7951805694661722  0.8050771140207016
 12.7576142586901469  9.6871393360814295  0.6098662181521808
 15.2741551225285779 12.2724824599608962  6.8353402465486255
  5.0825382826992573 15.2489159745938601  2.9992108417015935
