Ni   S                                  
   1.00000000000000     
    20.0000000000000000    0.0000000000000000    0.0000000000000000
     0.0000000000000000   20.0000000000000000    0.0000000000000000
     0.0000000000000000    0.0000000000000000   20.0000000000000000
   Ni   S 
    55     1
Direct
  0.3509211229987347  0.5944906559658704  0.4117640262146319
  0.4508325786003329  0.6632210664313032  0.3776314921487796
  0.4125964311306364  0.6616110284496094  0.4975899653820472
  0.5130283429653820  0.7223194884736086  0.4641432098782887
  0.5144369866697145  0.6076892144657261  0.4636668180716282
  0.5769503824487852  0.6647532904669216  0.3779257837199602
  0.6159042741159871  0.6649972495822810  0.4972016842342272
  0.3179442944512862  0.5909895632361164  0.5292256756853794
  0.3504647430099260  0.4891639492576327  0.5922819200123043
  0.4154643655491246  0.5407111596560581  0.4982905468401687
  0.4146316843766051  0.5975637983862525  0.6042260657883127
  0.5145955249477958  0.6639571337455084  0.5704707690864660
  0.5155491182534030  0.5434644458779495  0.5692487648955299
  0.6152035280650535  0.5446232247719037  0.4958546435524323
  0.6171701597276916  0.5985402466386430  0.6033086865595844
  0.3928957848346003  0.5932770075436075  0.2967103716391561
  0.3519462504751962  0.4891092049040906  0.3449013056880013
  0.4534866866266026  0.4904111424263831  0.2709922520766743
  0.4542941094719657  0.5427424662064338  0.3794936301670589
  0.5149231240639975  0.5982849914912378  0.2916835808721154
  0.5168072823230393  0.4386034230847766  0.3593390839507014
  0.5790902974076000  0.4922155604963937  0.2707996957101201
  0.5773565849547361  0.5440102655072239  0.3793449004173876
  0.3131357898730016  0.4870530876011245  0.4668870055049524
  0.3546150712216801  0.3806167794330022  0.5162034374224503
  0.4173361793931123  0.4374683230871883  0.4310808488994771
  0.4549902874813070  0.4366556276436132  0.5492261915373418
  0.5159431625850791  0.4909454554077564  0.4644182051692899
  0.5173059529935186  0.3736406755933580  0.4644342481018372
  0.6160750175798109  0.4394076002314476  0.4316671896395186
  0.5786613551271091  0.4397302827448745  0.5488300326292579
  0.6793224793256902  0.6002251633035957  0.4109388250079599
  0.7124328696321434  0.5967227003915990  0.5282200815613154
  0.6805423245128458  0.4928138762863428  0.5833597575581873
  0.6369845393984220  0.5962570477193514  0.2966943595352893
  0.6807798377009160  0.4931825389350548  0.3447110799189980
  0.7190755951142985  0.4929784331437964  0.4641035286493089
  0.6814341685749998  0.3853873845946520  0.5168462203208875
  0.4567321236893969  0.4930120266994357  0.6623272445584686
  0.5177087686272358  0.5964080630153796  0.6713248310963943
  0.5795552949562451  0.4912093987868391  0.6580352675388321
  0.3960080613440502  0.3776573812746755  0.6302377511685071
  0.4569884736868328  0.3149309604305135  0.5481449547660352
  0.5188421720954849  0.3819278805961287  0.6349518813701689
  0.5811882826276493  0.3180288379025020  0.5495893234621793
  0.6399591702663452  0.3882779559374927  0.6311153244296900
  0.4163430539939914  0.3825188178972645  0.3240337767381071
  0.5175931556593873  0.3878975236983639  0.2561679323733759
  0.6192087424534307  0.3857328317520650  0.3240238518165158
  0.3204586015146214  0.3850543702019960  0.3993642521052512
  0.4169881547971535  0.3161190481816827  0.4300746913994232
  0.5185825783764298  0.3185856955588153  0.3562892067050011
  0.6203217301703101  0.3194334624976246  0.4301389688320257
  0.7149461979200807  0.3897789933111035  0.3997254071678029
  0.5206317749574806  0.2582632521233896  0.4611808016009771
  0.3655753410426573  0.4525556659383303  0.6961093396180176
 
             NaN             NaN             NaN
             NaN             NaN             NaN
             NaN             NaN             NaN
             NaN             NaN             NaN
             NaN             NaN             NaN
             NaN             NaN             NaN
             NaN             NaN             NaN
             NaN             NaN             NaN
             NaN             NaN             NaN
             NaN             NaN             NaN
             NaN             NaN             NaN
             NaN             NaN             NaN
             NaN             NaN             NaN
             NaN             NaN             NaN
             NaN             NaN             NaN
             NaN             NaN             NaN
             NaN             NaN             NaN
             NaN             NaN             NaN
             NaN             NaN             NaN
             NaN             NaN             NaN
             NaN             NaN             NaN
             NaN             NaN             NaN
             NaN             NaN             NaN
             NaN             NaN             NaN
             NaN             NaN             NaN
             NaN             NaN             NaN
             NaN             NaN             NaN
             NaN             NaN             NaN
             NaN             NaN             NaN
             NaN             NaN             NaN
             NaN             NaN             NaN
             NaN             NaN             NaN
             NaN             NaN             NaN
             NaN             NaN             NaN
             NaN             NaN             NaN
             NaN             NaN             NaN
             NaN             NaN             NaN
             NaN             NaN             NaN
             NaN             NaN             NaN
             NaN             NaN             NaN
             NaN             NaN             NaN
             NaN             NaN             NaN
             NaN             NaN             NaN
             NaN             NaN             NaN
             NaN             NaN             NaN
             NaN             NaN             NaN
             NaN             NaN             NaN
             NaN             NaN             NaN
             NaN             NaN             NaN
             NaN             NaN             NaN
             NaN             NaN             NaN
             NaN             NaN             NaN
             NaN             NaN             NaN
             NaN             NaN             NaN
             NaN             NaN             NaN
             NaN             NaN             NaN
