Ni   S 
   1.00000000000000     
  20.0000000000000000   0.0000000000000000   0.0000000000000000
   0.0000000000000000  20.0000000000000000   0.0000000000000000
   0.0000000000000000   0.0000000000000000  20.0000000000000000
Ni   S 
55  1  
Direct
  0.3503840052730710  0.5957827096125921  0.4104378596426770  
  0.4517432597627360  0.6633855795978150  0.3769841725824610  
  0.4122368036214970  0.6623400482841290  0.4969106801549260  
  0.5132224440471230  0.7231447521373230  0.4642618933816890  
  0.5148206597189140  0.6085021283618770  0.4641199814824190  
  0.5772402154515390  0.6650200284383130  0.3775878977972130  
  0.6161695519510670  0.6653169116563400  0.4968847369866150  
  0.3162228448840450  0.5931265910287919  0.5270193748453310  
  0.3474184362628070  0.4901312989404470  0.5851744556901010  
  0.4148296173796170  0.5418387736690849  0.4970426764885050  
  0.4134110767134370  0.5973142109294680  0.6035950846188030  
  0.5140311485330860  0.6634150639826900  0.5711135614313180  
  0.5150269961582050  0.5428587890507830  0.5701161882770260  
  0.6156572157804310  0.5448164254310230  0.4969168591579130  
  0.6164972132852500  0.5987088539066150  0.6043498657362461  
  0.3926935892992920  0.5936647555678219  0.2954839500081830  
  0.3515983573527000  0.4888435180894890  0.3438651991570940  
  0.4535870718901050  0.4905743488099220  0.2704406599742410  
  0.4536171071198960  0.5429569975521460  0.3788509024006500  
  0.5151528593956340  0.5981039901696260  0.2908528377550820  
  0.5169392415239360  0.4383073598744150  0.3586856411562350  
  0.5793283946915370  0.4922186126332240  0.2704935543498910  
  0.5775670987290700  0.5444901306796910  0.3790338467525060  
  0.3126686129702280  0.4879636654315360  0.4642038897464860  
  0.3537501425639390  0.3809666630502380  0.5168528200998490  
  0.4165587587202850  0.4368643680708290  0.4310073767668570  
  0.4546763529410850  0.4375795520330360  0.5496085098103480  
  0.5159568337070440  0.4907635998236590  0.4644079161140550  
  0.5171265353482970  0.3728298444579680  0.4644531615045010  
  0.6169334330776760  0.4393694316617740  0.4313998993145770  
  0.5790374380683690  0.4386188211587550  0.5491628201927270  
  0.6797069552273880  0.6000368949689020  0.4109265284493800  
  0.7128266459013370  0.5970174396839810  0.5289134179205280  
  0.6810569838417850  0.4922877881566090  0.5836821259699930  
  0.6375227121671539  0.5966190578689560  0.2958856797340060  
  0.6809842279449970  0.4932713881161350  0.3444378679967170  
  0.7195534375053820  0.4932985399379110  0.4641780196475120  
  0.6823197990033520  0.3854912553482140  0.5173252866007090  
  0.4525000478298080  0.4918303449340160  0.6627412124304750  
  0.5160203541380780  0.5955402096592980  0.6726093918378170  
  0.5788705015615040  0.4911448428180660  0.6575853978784850  
  0.3942562936275000  0.3833253661307690  0.6332498374287350  
  0.4553162140273410  0.3159176238986280  0.5501192146225190  
  0.5178387744718050  0.3823194283015210  0.6366890629518810  
  0.5810857961120350  0.3179842251505040  0.5501263531767721  
  0.6400447097614120  0.3877949393742810  0.6321420817459400  
  0.4157742917730830  0.3827223520296670  0.3232653850603600  
  0.5174637818110100  0.3873639570645720  0.2554097343651880  
  0.6196521260721970  0.3861620321996990  0.3233568117323320  
  0.3195467306874850  0.3845192597375160  0.3989397056082420  
  0.4167069402048260  0.3163130592388160  0.4306600457752910  
  0.5185739578343200  0.3182944041805560  0.3564119642465760  
  0.6200844365449431  0.3193113637337180  0.4301322079602410  
  0.7156703922816730  0.3893863989199820  0.3996472169897270  
  0.5199657125915420  0.2579513251620680  0.4622539626603410  
  0.3682899380228330  0.4532303194609850  0.6956048155004380  
