Hf   C    O 
   1.00000000000000     
   9.2947998047000002   0.0000000000000000   0.0000000000000000
   0.0000000000000000   9.2947998047000002   0.0000000000000000
   0.0000000000000000   0.0000000000000000  21.9710998535000002
Hf   C    O 
32  32  1  
Direct
  0.0013607418490493  0.9991305818195636  0.3126203449597793 T T T
  0.2509887986600645  0.2489140311210696  0.3126024396481394 T T T
  0.0000000000000000  0.2500000000000000  0.0000000000000000 F F F
  0.2500000000000000  0.0000000000000000  0.0000000000000000 F F F
  0.0000000000000000  0.0000000000000000  0.1057599999999965 F F F
  0.2500000000000000  0.2500000000000000  0.1057599999999965 F F F
  0.0004826282873581  0.2496936039922357  0.2100141868556992 T T T
  0.2499178252823818  0.0002866541953355  0.2096074895661904 T T T
  0.4988282845187989  0.9997948781757920  0.3122237388694220 T T T
  0.7509950208348509  0.2417644415750909  0.3122628993326205 T T T
  0.5000000000000000  0.2500000000000000  0.0000000000000000 F F F
  0.7500000000000000  0.0000000000000000  0.0000000000000000 F F F
  0.5000000000000000  0.0000000000000000  0.1057599999999965 F F F
  0.7500000000000000  0.2500000000000000  0.1057599999999965 F F F
  0.5001491281856636  0.2498732249585730  0.2100501259978253 T T T
  0.7500867979546952  0.9986558628264444  0.2096687276597711 T T T
  0.0082569492276060  0.4992045204516084  0.3122544799678555 T T T
  0.2503063084155027  0.7512311717352121  0.3122155412854042 T T T
  0.0000000000000000  0.7500000000000000  0.0000000000000000 F F F
  0.2500000000000000  0.5000000000000000  0.0000000000000000 F F F
  0.0000000000000000  0.5000000000000000  0.1057599999999965 F F F
  0.2500000000000000  0.7500000000000000  0.1057599999999965 F F F
  0.0002947427152855  0.7500672796470167  0.2100618782711079 T T T
  0.2515396367161014  0.5000034400261216  0.2096515613022408 T T T
  0.4985208768714801  0.5000527160800068  0.3144505871762748 T T T
  0.7501163707192559  0.7514695240971082  0.3145350599035721 T T T
  0.5000000000000000  0.7500000000000000  0.0000000000000000 F F F
  0.7500000000000000  0.5000000000000000  0.0000000000000000 F F F
  0.5000000000000000  0.5000000000000000  0.1057599999999965 F F F
  0.7500000000000000  0.7500000000000000  0.1057599999999965 F F F
  0.5005568335549860  0.7495900480228500  0.2104633735610300 T T T
  0.7484949453394258  0.5016516993827967  0.2111822002604876 T T T
  0.2500000000000000  0.2500000000000000  0.0000000000000000 F F F
  0.0000000000000000  0.0000000000000000  0.0000000000000000 F F F
  0.2495365248084941  0.0005904123950731  0.3164547137692811 T T T
  0.0006183929731898  0.2495244701467934  0.3165303934985079 T T T
  0.2505869948639984  0.2499364721104718  0.2113599740238831 T T T
  0.0001710412139443  0.9995553053320544  0.2113659721835951 T T T
  0.2500000000000000  0.0000000000000000  0.1057599999999965 F F F
  0.0000000000000000  0.2500000000000000  0.1057599999999965 F F F
  0.7500000000000000  0.2500000000000000  0.0000000000000000 F F F
  0.5000000000000000  0.0000000000000000  0.0000000000000000 F F F
  0.7505193905425648  0.9986172348594800  0.3170067463643869 T T T
  0.4994782637324472  0.2507832481786119  0.3166488739550474 T T T
  0.7504196588297776  0.2501929909154467  0.2120557885471259 T T T
  0.5001278025157330  0.0003786201581967  0.2109065225800037 T T T
  0.7500000000000000  0.0000000000000000  0.1057599999999965 F F F
  0.5000000000000000  0.2500000000000000  0.1057599999999965 F F F
  0.2500000000000000  0.7500000000000000  0.0000000000000000 F F F
  0.0000000000000000  0.5000000000000000  0.0000000000000000 F F F
  0.2515085024082636  0.4996731442438617  0.3169672678605140 T T T
  0.9994047771703460  0.7506733114177561  0.3166652103606251 T T T
  0.2496902108051899  0.7499907359816430  0.2109317348494581 T T T
  0.9999503946581370  0.4997696686037406  0.2120629129305476 T T T
  0.2500000000000000  0.5000000000000000  0.1057599999999965 F F F
  0.0000000000000000  0.7500000000000000  0.1057599999999965 F F F
  0.7500000000000000  0.7500000000000000  0.0000000000000000 F F F
  0.5000000000000000  0.5000000000000000  0.0000000000000000 F F F
  0.7543051872586917  0.4957882599933372  0.3189714706916258 T T T
  0.4935420276552570  0.7564671506226672  0.3139813432535365 T T T
  0.7505801000298568  0.7503921538266345  0.2111656699635416 T T T
  0.4997730816659149  0.4995900938986731  0.2110935188764694 T T T
  0.7500000000000000  0.5000000000000000  0.1057599999999965 F F F
  0.5000000000000000  0.7500000000000000  0.1057599999999965 F F F
  0.6864280170138343  0.5636797623879694  0.3699414698272638 T T T
