Mo  S Li                                
   1.00000000000000     
    27.1203981867000010    0.4023603500000000   -2.4028070269000001
     0.3017446571000000   23.3624652224999991   -0.4376913698000000
    -7.1295779436000002   -0.2894054832000000   10.3645110117999995
   Mo   S    Li
    48   208     1
Direct
  0.5362238191874610  0.0878833833111024  0.6729626648331306
  0.8643644681117180  0.4225448345709250  0.6570279769751622
  0.7609123781290864  0.5619523662448650  0.0121201367072416
  0.8958830763948573  0.7985570311989383  0.8330662492762655
  0.2790437602227243  0.4616322567305645  0.1636146696948366
  0.5347796180624654  0.5314143214296650  0.3754268262459262
  0.6452691686987122  0.9127042654958156  0.7399490473875276
  0.0608308103947448  0.9770025884252544  0.7385841786595018
  0.7624375348727344  0.2458229983175517  0.1364648966901371
  0.9732687266744512  0.9075455710307748  0.7343396195313389
  0.3656496787816330  0.9637339970753408  0.0839316094153995
  0.7031598190492953  0.5070895646779835  0.1160969314245981
  0.9075285579612434  0.6852425248793241  0.7401737572680864
  0.8768215153437136  0.2637353156591278  0.1897216929172558
  0.1845432158780673  0.5416858380330101  0.5543959912946556
  0.4175395829280452  0.9194685210262671  0.9607194999750687
  0.8847929361693282  0.9325924948313070  0.7666738650158992
  0.6265924850520872  0.0711329939248665  0.2300069759072002
  0.7279478204573473  0.3845598607969659  0.5673008633565194
  0.5864055706289423  0.4902330589381682  0.2248624758601437
  0.3503993724621989  0.0869287878770363  0.3161605221503720
  0.8487512714363137  0.8534937355670945  0.5371207283270560
  0.2105739637981033  0.6837002649494259  0.4944141421577435
  0.4901241470187173  0.1043507417180992  0.0728862644440109
  0.6023660507837451  0.0815572239020964  0.5693216497977146
  0.4812499258070426  0.1938597705386612  0.9188888080377359
  0.6263354249721634  0.1747016522337365  0.1074308771168350
  0.2567921491205316  0.3522042901012952  0.0755166050438949
  0.8350432922504228  0.9679322818099246  0.0361407178816657
  0.6060285322382063  0.4355568733942245  0.4435749697496944
  0.3390943369065725  0.7768266509748565  0.2537267332190219
  0.5275100149125376  0.9854322863083353  0.1738955836505999
  0.0183103556503714  0.1934747791753243  0.9480207620623011
  0.8696374156775658  0.6773281337663697  0.4763162763173117
  0.2107172916981152  0.7497110381545176  0.0449049107749506
  0.5199624028205918  0.9917451564042125  0.5196499817854090
  0.7202131895680921  0.0273497928677628  0.8125608054461351
  0.7383919669413763  0.1238628596919830  0.3361709822042057
  0.5164019354782742  0.8735953560331658  0.2323054637199149
  0.1890908355565586  0.4662516065221476  0.7206607848374824
  0.3451222448899474  0.6688814240768610  0.6820289649962916
  0.1042629069515944  0.1767386811795160  0.8922171126000354
  0.2180724192462103  0.2226846504025759  0.9522966572173047
  0.3770775621195536  0.1813144511868187  0.9007106597378127
  0.2798542532111127  0.7647707003468605  0.6962870581232260
  0.2087515067377400  0.2470210576388691  0.3119877724078056
  0.8662167092056046  0.5798428421016963  0.0002516621730844
  0.2529136410919954  0.1690335337709634  0.2060753688207345
  0.2245580888622408  0.8840600857143989  0.2519787281132872
  0.4146502561902502  0.5839693423764621  0.6964888271947018
  0.0490994566212124  0.7791614344161929  0.3303796541443233
  0.4898383369083730  0.0883991384346472  0.4409834759854268
  0.3105430299190756  0.9289989806599702  0.1577804738678646
  0.3649909721568210  0.1863015222380582  0.3646745799360752
  0.0370780434058159  0.4695241486063163  0.6455702272068435
  0.6704313822405140  0.0841737585088190  0.1119017912288976
  0.0982340814679404  0.5029911292576030  0.5062391507751458
  0.6909251696263553  0.6336399329990906  0.8419150216235726
  0.3444831718845545  0.0569691850543093  0.1351664775735808
  0.6028838925398229  0.8063787920364958  0.3099242298510347
  0.0811042318569347  0.2746725232600231  0.9535484745724173
  0.8361312440325169  0.7703492363056595  0.3629414372003520
  0.9605191154841591  0.5433384966564050  0.0365988732512478
  0.7744323456167000  0.4729867454811972  0.6080146621621513
  0.1775370911728155  0.0552305554336617  0.4151803709984744
  0.9842565535022065  0.6056503657595234  0.8176524894746044
  0.9486896401970116  0.5242992699146231  0.1764710076752450
  0.1397138979811187  0.7359831766806688  0.2866010236317026
  0.6757055124421154  0.2239636909467579  0.6828861228004204
  0.0155919262180307  0.0611753330053514  0.4050464580144988
  0.2230571163384995  0.4003423217329603  0.2008024711143365
  0.1567366793504929  0.2240658255497044  0.4019598906268648
  0.6938177999183681  0.4275126827653653  0.6900682245595089
  0.2486808480302853  0.1616852702516329  0.8483344291318782
  0.5552199451293757  0.7354800721737587  0.9140580301397129
  0.6652960182647254  0.2006224967055953  0.9808588073596418
  0.7382675984358573  0.3388033778801939  0.0762546539204349
  0.8656575933074747  0.2408879216529919  0.3478792393511967
  0.7895128172310318  0.2079139797522540  0.0092321740112051
  0.1153895004364104  0.6175813215676313  0.3924943320191359
  0.4033928007173381  0.6240337585470013  0.3050285564885303
  0.6087074124212425  0.9355987032246427  0.3751713891965159
  0.1267235595087478  0.5031805229943355  0.7878565599113301
  0.6014424936956656  0.4631527234712259  0.9532761124926661
  0.2724321537571012  0.4709987062397599  0.4566170338251884
  0.2586162666100650  0.3929187041514314  0.7083340949740623
  0.5624263906245479  0.6437270257139841  0.8755765296779559
  0.1674535905205977  0.6616610007444189  0.2491761225309720
  0.6426323975115203  0.5281110905344553  0.4618258801056969
  0.2211562884459761  0.0232171630567439  0.6075809024825303
  0.8044869336886522  0.4679694803567384  0.2694333608690037
  0.4028676018704976  0.6569498851038171  0.5991438774438652
  0.2477968636922467  0.7959997321980277  0.2627803495646869
  0.8746143084748567  0.9544250784689687  0.5729995176297902
  0.8965906859852469  0.4914889254381360  0.6113292705211690
  0.0151268189046239  0.2589979989942786  0.0905706346110231
  0.4801352523004717  0.9610016088805072  0.2851010726778030
  0.4338797772946655  0.7108319564337666  0.3521300061974537
  0.6475740128298235  0.0920121414415976  0.8052848369332314
  0.0541114632354679  0.3836183655897047  0.6450472422815596
  0.9887588811813799  0.1874291077556569  0.7215357295813402
  0.9877120332968861  0.0615105416246326  0.6305833705776753
  0.1286839233419772  0.3776369399799518  0.6415718270934249
  0.3159058201423613  0.2790959011068664  0.0490340037984800
  0.4178383315585696  0.0179203387187812  0.0140090564423491
  0.2570986445604216  0.5592450173450259  0.0820070281987299
  0.4311273081160821  0.8559251605887025  0.6209140802775440
  0.6347544251311537  0.9135257789573582  0.9107297143138334
  0.5669327789828438  0.6163562311430550  0.5092117472155364
  0.4821903603725524  0.3306250571510694  0.7261648481479125
  0.7198038380875266  0.0845007292502287  0.6753630895569006
  0.7802070496451063  0.3769661723464187  0.4432535679273226
  0.8165635403910808  0.9191711182580022  0.1484967301831800
  0.3585013278470003  0.8716877398350253  0.6464641198432625
  0.6899468067162681  0.4855279404680205  0.9160420828672380
  0.0532387116856548  0.1447654931956071  0.4509801659848464
  0.7990437125669826  0.0566980618061836  0.0394568354126035
  0.5947370563267343  0.7789865385706026  0.5539514504050385
  0.0544387569307158  0.6476608576783954  0.4334989956894759
  0.1703157839749539  0.4224557605688203  0.9955974339841671
  0.2559067490111341  0.0678383239817592  0.2554102992059039
  0.8285741769241461  0.3513583235040955  0.1288676268631252
  0.2368915024947949  0.2725285414356106  0.1660888589551895
  0.4003365424631741  0.9972588951894155  0.4406390961497974
  0.8423331633503368  0.1367303903759809  0.5621077839302754
  0.9041712278108331  0.2070523759435792  0.8568324467804564
  0.1001270140489240  0.5310887730040313  0.0623634355812935
  0.2655401104380122  0.5479738933429007  0.2559879676715390
  0.2582265893526956  0.3267965370833381  0.4652458903617940
  0.8306731520515180  0.6205423321129524  0.5510800627344703
  0.8665621684513110  0.3363716270464887  0.5514129548487842
  0.9858915414184986  0.9211193567814718  0.5622182758122564
  0.6627549599418882  0.1650274625078997  0.3487631354789839
  0.4951441813496870  0.2701654508559148  0.4924262806799612
  0.5437326394519352  0.9951778414323644  0.7359524731790533
  0.5673676561722006  0.0714576378676460  0.3154684836712692
  0.5350256400114675  0.0303723813881603  0.0154634576686654
  0.0244611058074549  0.8345061749197534  0.4243636374038676
  0.2235622029075141  0.8499211469942117  0.5868293757656333
  0.5779408317078760  0.3048246696877237  0.8838527335723615
  0.9456731513507028  0.9391707257436372  0.2035411137992455
  0.4887621541658105  0.5851672962470200  0.4746935933390267
  0.5464494189929238  0.4537613352416879  0.0089991427710688
  0.2420636169442388  0.8442853794425420  0.7695799386570565
  0.7308549747830638  0.2224815529627381  0.2718174504190929
  0.2726624351165886  0.4350836374672900  0.9696686496984466
  0.6851621052435408  0.9772082602989709  0.2958159368294238
  0.3929521842369082  0.7443484116288714  0.1690018569502991
  0.9654448891590374  0.3964011035493933  0.8786537769494203
  0.5165153567309824  0.7705981199185955  0.1918980565446257
  0.3483168952455866  0.6939877774944215  0.8762418122732064
  0.2697682729424559  0.2027653505373431  0.7387790102533995
  0.1589682030552913  0.9387553274796933  0.8150417978252512
  0.5674568262560836  0.2717625946372949  0.0175871291674053
  0.1065476697152318  0.7815931562488185  0.9459959932409464
  0.0397112124584219  0.9889316298200279  0.8994855455572791
  0.5298799775728174  0.4535352857301107  0.4744847628201807
  0.7470866647201082  0.2255439992833592  0.6693663931031931
  0.2802841757890638  0.5051650918240993  0.7661207159068778
  0.8374294918370444  0.0934180382619344  0.4126917913485367
  0.2691212819892164  0.5977032697910478  0.5718118603373632
  0.5148349901996204  0.5963457067053393  0.9067106926342801
  0.5752073504766089  0.7644297122186164  0.7958350126660123
  0.0135579075827377  0.1042428251483444  0.9802998857087639
  0.3555498263166667  0.3886094917568341  0.2546465061180841
  0.5159659378335024  0.8279654270957213  0.4146664598051315
  0.7997801962811139  0.8746352063465889  0.6418880662772877
  0.6424806367914332  0.3951947132786938  0.3265358287554618
  0.1152198389235830  0.7448262792657057  0.8057830610234119
  0.3807643372691913  0.2454430271028761  0.7422620139938877
  0.4850930123180390  0.3479573306900313  0.5751771332776658
  0.2026369810158782  0.3492911888473208  0.5234741378576260
  0.7428840169388937  0.9598315915610079  0.2409308431905225
  0.5387269883820678  0.1407554270501448  0.8598690924914241
  0.7536027505070929  0.9353003436487396  0.8099601785736146
  0.3703893968406364  0.8716106214561025  0.3108513022247271
  0.9736860010252210  0.8738825558910690  0.9196752702256229
  0.9764324403579767  0.7334691033222358  0.9606659600574105
  0.7572613338072200  0.6532399833037505  0.6897459299805312
  0.1073109974238764  0.2873654454497099  0.2605755649842587
  0.9250310632057394  0.1800674315427455  0.1487519811028617
  0.9470343460143771  0.8166859030636012  0.6166119010063806
  0.5086050258985784  0.5675849369457685  0.1594380363823367
  0.9851791276157151  0.2749947397093614  0.7768112394086807
  0.1558027370376881  0.6671658562228308  0.8925440988887426
  0.4146349023075085  0.2382769966914032  0.3144663287500255
  0.8457503563813837  0.5119090077218555  0.2074742597160667
  0.1376624755550387  0.1759905058609427  0.1224199757684391
  0.9349371577690475  0.8627931722316986  0.2695693629667908
  0.4240562039877176  0.4295591612777725  0.1100197079902886
  0.8319160562357627  0.3490878723661165  0.7778216813811876
  0.2932085108833354  0.7445259429334344  0.5350193948842137
  0.9014760913824666  0.9868259671295535  0.9628055767526009
  0.1330188193474390  0.8817335394869081  0.1897178748666369
  0.2047822401578706  0.1270372932539751  0.9858247163352732
  0.0479712146562509  0.5981140346320262  0.0243980458983274
  0.1168480835413588  0.9727412829819332  0.6282588695810564
  0.3844000791554453  0.8262149014187861  0.8147270512090007
  0.1905723546536139  0.4797007118203271  0.4169297506431306
  0.2312519203243832  0.3060758416826225  0.8647219525148344
  0.8292299993697571  0.7607263795522244  0.6110782905008080
  0.0965806827991422  0.0044804815483741  0.2764598810827538
  0.4184448828278053  0.0700143689162456  0.5614439223567980
  0.6670558687342214  0.8379939669769532  0.6415809461739566
  0.1961170382432285  0.7140622401974129  0.6481221540109031
  0.5966892265400698  0.1809320909654219  0.5179141929305674
  0.6880007568038288  0.5075361576830334  0.2757176620641954
  0.7281768813392383  0.6912101674964609  0.7897202478099721
  0.5225772402738585  0.1873344419629298  0.7014582608597029
  0.4116444988050324  0.1130902732068727  0.8230469841894190
  0.8951304117909809  0.4200231828689978  0.8868652715658510
  0.5921243227542142  0.5906079957316700  0.1930395462973062
  0.5455927281378732  0.1928848813015426  0.1542138217991178
  0.7022323011609379  0.8555435924422351  0.9511080919019022
  0.8891683299915518  0.1506605941538195  0.9511481235405674
  0.7336841380695382  0.2810754378150144  0.5293622782266389
  0.8533686326450878  0.7989593934090402  0.9292949414256539
  0.4247107806892503  0.1557446685405398  0.1172026701356686
  0.3562788590308850  0.5118863110685115  0.3817748427935689
  0.4003162165724668  0.8638352709331644  0.0847142242452988
  0.7178551973158613  0.6008196601864040  0.1168299225702990
  0.1235735611316539  0.9207896046214945  0.3258499300318748
  0.5330631187638447  0.8896609125880932  0.5731054111524543
  0.6191197798004405  0.9807532601792806  0.5739003720370774
  0.2832469711645161  0.1813876583485330  0.4417869899626451
  0.6728447569948334  0.7663768450741346  0.9165223435971593
  0.6508433275352276  0.3509279873936572  0.5932721001821963
  0.9622985702344202  0.7223755602753802  0.6742353661274350
  0.9991199446031127  0.7036685395979668  0.2801290093299275
  0.3010831956001294  0.9404856486345730  0.8598928259541859
  0.2869428806924713  0.6890222750081932  0.2195870762505736
  0.3883083645028585  0.9510255396334257  0.7397553284564732
  0.9142511756704154  0.6199795975794836  0.4237451859435120
  0.7283386196392615  0.0435465306266329  0.4485903551551004
  0.4259744738347777  0.2707247555893428  0.9453512430769730
  0.8649698533450526  0.0282406547863787  0.7818340697799718
  0.9463017315928195  0.0726693021502797  0.4167459893828478
  0.7697248379825807  0.8757431186203911  0.3067970487639449
  0.1738007667245671  0.0472427461767886  0.6792157039352865
  0.0830391745664000  0.0859818819342212  0.7636037678697761
  0.5248688256132062  0.8975382276446895  0.0608675971996217
  0.4341613003639094  0.6967359504835131  0.9133864682922079
  0.2330476080561708  0.5663574328666660  0.7972321276403584
  0.4255928431265906  0.5139810852179650  0.1670584675274193
  0.4115577438085600  0.7805634007023278  0.5211940048656339
  0.8559553275647858  0.6373068750308436  0.8361274376270786
  0.1131227493197146  0.2372020483025758  0.7656016040862259
  0.0897901938370851  0.9173315586683849  0.9202727189500617
  0.8449546793443015  0.6382216507728612  0.1104531784087620
  0.0262214637802568  0.1702221341539328  0.2700828679932235
  0.2638012025628535  0.8097189240012901  0.0201091390718915
  0.9504135678525519  0.3310382213131207  0.2158871969447211
  0.9863923854365220  0.2849300222816845  0.3836393659942914
  0.7670155659013589  0.7094271983153426  0.2834352289010273
  0.5172880646799968  0.4087665206526276  0.1960331720114413
  0.7839867724874698  0.5228037619580576  0.8630798125180751
  0.2813065430351835  0.6533666640033117  0.3834747227130204
 
  0.00000000E+00  0.00000000E+00  0.00000000E+00
  0.00000000E+00  0.00000000E+00  0.00000000E+00
  0.00000000E+00  0.00000000E+00  0.00000000E+00
  0.00000000E+00  0.00000000E+00  0.00000000E+00
  0.00000000E+00  0.00000000E+00  0.00000000E+00
  0.00000000E+00  0.00000000E+00  0.00000000E+00
  0.00000000E+00  0.00000000E+00  0.00000000E+00
  0.00000000E+00  0.00000000E+00  0.00000000E+00
  0.00000000E+00  0.00000000E+00  0.00000000E+00
  0.00000000E+00  0.00000000E+00  0.00000000E+00
  0.00000000E+00  0.00000000E+00  0.00000000E+00
  0.00000000E+00  0.00000000E+00  0.00000000E+00
  0.00000000E+00  0.00000000E+00  0.00000000E+00
  0.00000000E+00  0.00000000E+00  0.00000000E+00
  0.00000000E+00  0.00000000E+00  0.00000000E+00
  0.00000000E+00  0.00000000E+00  0.00000000E+00
  0.00000000E+00  0.00000000E+00  0.00000000E+00
  0.00000000E+00  0.00000000E+00  0.00000000E+00
  0.00000000E+00  0.00000000E+00  0.00000000E+00
  0.00000000E+00  0.00000000E+00  0.00000000E+00
  0.00000000E+00  0.00000000E+00  0.00000000E+00
  0.00000000E+00  0.00000000E+00  0.00000000E+00
  0.00000000E+00  0.00000000E+00  0.00000000E+00
  0.00000000E+00  0.00000000E+00  0.00000000E+00
  0.00000000E+00  0.00000000E+00  0.00000000E+00
  0.00000000E+00  0.00000000E+00  0.00000000E+00
  0.00000000E+00  0.00000000E+00  0.00000000E+00
  0.00000000E+00  0.00000000E+00  0.00000000E+00
  0.00000000E+00  0.00000000E+00  0.00000000E+00
  0.00000000E+00  0.00000000E+00  0.00000000E+00
  0.00000000E+00  0.00000000E+00  0.00000000E+00
  0.00000000E+00  0.00000000E+00  0.00000000E+00
  0.00000000E+00  0.00000000E+00  0.00000000E+00
  0.00000000E+00  0.00000000E+00  0.00000000E+00
  0.00000000E+00  0.00000000E+00  0.00000000E+00
  0.00000000E+00  0.00000000E+00  0.00000000E+00
  0.00000000E+00  0.00000000E+00  0.00000000E+00
  0.00000000E+00  0.00000000E+00  0.00000000E+00
  0.00000000E+00  0.00000000E+00  0.00000000E+00
  0.00000000E+00  0.00000000E+00  0.00000000E+00
  0.00000000E+00  0.00000000E+00  0.00000000E+00
  0.00000000E+00  0.00000000E+00  0.00000000E+00
  0.00000000E+00  0.00000000E+00  0.00000000E+00
  0.00000000E+00  0.00000000E+00  0.00000000E+00
  0.00000000E+00  0.00000000E+00  0.00000000E+00
  0.00000000E+00  0.00000000E+00  0.00000000E+00
  0.00000000E+00  0.00000000E+00  0.00000000E+00
  0.00000000E+00  0.00000000E+00  0.00000000E+00
  0.00000000E+00  0.00000000E+00  0.00000000E+00
  0.00000000E+00  0.00000000E+00  0.00000000E+00
  0.00000000E+00  0.00000000E+00  0.00000000E+00
  0.00000000E+00  0.00000000E+00  0.00000000E+00
  0.00000000E+00  0.00000000E+00  0.00000000E+00
  0.00000000E+00  0.00000000E+00  0.00000000E+00
  0.00000000E+00  0.00000000E+00  0.00000000E+00
  0.00000000E+00  0.00000000E+00  0.00000000E+00
  0.00000000E+00  0.00000000E+00  0.00000000E+00
  0.00000000E+00  0.00000000E+00  0.00000000E+00
  0.00000000E+00  0.00000000E+00  0.00000000E+00
  0.00000000E+00  0.00000000E+00  0.00000000E+00
  0.00000000E+00  0.00000000E+00  0.00000000E+00
  0.00000000E+00  0.00000000E+00  0.00000000E+00
  0.00000000E+00  0.00000000E+00  0.00000000E+00
  0.00000000E+00  0.00000000E+00  0.00000000E+00
  0.00000000E+00  0.00000000E+00  0.00000000E+00
  0.00000000E+00  0.00000000E+00  0.00000000E+00
  0.00000000E+00  0.00000000E+00  0.00000000E+00
  0.00000000E+00  0.00000000E+00  0.00000000E+00
  0.00000000E+00  0.00000000E+00  0.00000000E+00
  0.00000000E+00  0.00000000E+00  0.00000000E+00
  0.00000000E+00  0.00000000E+00  0.00000000E+00
  0.00000000E+00  0.00000000E+00  0.00000000E+00
  0.00000000E+00  0.00000000E+00  0.00000000E+00
  0.00000000E+00  0.00000000E+00  0.00000000E+00
  0.00000000E+00  0.00000000E+00  0.00000000E+00
  0.00000000E+00  0.00000000E+00  0.00000000E+00
  0.00000000E+00  0.00000000E+00  0.00000000E+00
  0.00000000E+00  0.00000000E+00  0.00000000E+00
  0.00000000E+00  0.00000000E+00  0.00000000E+00
  0.00000000E+00  0.00000000E+00  0.00000000E+00
  0.00000000E+00  0.00000000E+00  0.00000000E+00
  0.00000000E+00  0.00000000E+00  0.00000000E+00
  0.00000000E+00  0.00000000E+00  0.00000000E+00
  0.00000000E+00  0.00000000E+00  0.00000000E+00
  0.00000000E+00  0.00000000E+00  0.00000000E+00
  0.00000000E+00  0.00000000E+00  0.00000000E+00
  0.00000000E+00  0.00000000E+00  0.00000000E+00
  0.00000000E+00  0.00000000E+00  0.00000000E+00
  0.00000000E+00  0.00000000E+00  0.00000000E+00
  0.00000000E+00  0.00000000E+00  0.00000000E+00
  0.00000000E+00  0.00000000E+00  0.00000000E+00
  0.00000000E+00  0.00000000E+00  0.00000000E+00
  0.00000000E+00  0.00000000E+00  0.00000000E+00
  0.00000000E+00  0.00000000E+00  0.00000000E+00
  0.00000000E+00  0.00000000E+00  0.00000000E+00
  0.00000000E+00  0.00000000E+00  0.00000000E+00
  0.00000000E+00  0.00000000E+00  0.00000000E+00
  0.00000000E+00  0.00000000E+00  0.00000000E+00
  0.00000000E+00  0.00000000E+00  0.00000000E+00
  0.00000000E+00  0.00000000E+00  0.00000000E+00
  0.00000000E+00  0.00000000E+00  0.00000000E+00
  0.00000000E+00  0.00000000E+00  0.00000000E+00
  0.00000000E+00  0.00000000E+00  0.00000000E+00
  0.00000000E+00  0.00000000E+00  0.00000000E+00
  0.00000000E+00  0.00000000E+00  0.00000000E+00
  0.00000000E+00  0.00000000E+00  0.00000000E+00
  0.00000000E+00  0.00000000E+00  0.00000000E+00
  0.00000000E+00  0.00000000E+00  0.00000000E+00
  0.00000000E+00  0.00000000E+00  0.00000000E+00
  0.00000000E+00  0.00000000E+00  0.00000000E+00
  0.00000000E+00  0.00000000E+00  0.00000000E+00
  0.00000000E+00  0.00000000E+00  0.00000000E+00
  0.00000000E+00  0.00000000E+00  0.00000000E+00
  0.00000000E+00  0.00000000E+00  0.00000000E+00
  0.00000000E+00  0.00000000E+00  0.00000000E+00
  0.00000000E+00  0.00000000E+00  0.00000000E+00
  0.00000000E+00  0.00000000E+00  0.00000000E+00
  0.00000000E+00  0.00000000E+00  0.00000000E+00
  0.00000000E+00  0.00000000E+00  0.00000000E+00
  0.00000000E+00  0.00000000E+00  0.00000000E+00
  0.00000000E+00  0.00000000E+00  0.00000000E+00
  0.00000000E+00  0.00000000E+00  0.00000000E+00
  0.00000000E+00  0.00000000E+00  0.00000000E+00
  0.00000000E+00  0.00000000E+00  0.00000000E+00
  0.00000000E+00  0.00000000E+00  0.00000000E+00
  0.00000000E+00  0.00000000E+00  0.00000000E+00
  0.00000000E+00  0.00000000E+00  0.00000000E+00
  0.00000000E+00  0.00000000E+00  0.00000000E+00
  0.00000000E+00  0.00000000E+00  0.00000000E+00
  0.00000000E+00  0.00000000E+00  0.00000000E+00
  0.00000000E+00  0.00000000E+00  0.00000000E+00
  0.00000000E+00  0.00000000E+00  0.00000000E+00
  0.00000000E+00  0.00000000E+00  0.00000000E+00
  0.00000000E+00  0.00000000E+00  0.00000000E+00
  0.00000000E+00  0.00000000E+00  0.00000000E+00
  0.00000000E+00  0.00000000E+00  0.00000000E+00
  0.00000000E+00  0.00000000E+00  0.00000000E+00
  0.00000000E+00  0.00000000E+00  0.00000000E+00
  0.00000000E+00  0.00000000E+00  0.00000000E+00
  0.00000000E+00  0.00000000E+00  0.00000000E+00
  0.00000000E+00  0.00000000E+00  0.00000000E+00
  0.00000000E+00  0.00000000E+00  0.00000000E+00
  0.00000000E+00  0.00000000E+00  0.00000000E+00
  0.00000000E+00  0.00000000E+00  0.00000000E+00
  0.00000000E+00  0.00000000E+00  0.00000000E+00
  0.00000000E+00  0.00000000E+00  0.00000000E+00
  0.00000000E+00  0.00000000E+00  0.00000000E+00
  0.00000000E+00  0.00000000E+00  0.00000000E+00
  0.00000000E+00  0.00000000E+00  0.00000000E+00
  0.00000000E+00  0.00000000E+00  0.00000000E+00
  0.00000000E+00  0.00000000E+00  0.00000000E+00
  0.00000000E+00  0.00000000E+00  0.00000000E+00
  0.00000000E+00  0.00000000E+00  0.00000000E+00
  0.00000000E+00  0.00000000E+00  0.00000000E+00
  0.00000000E+00  0.00000000E+00  0.00000000E+00
  0.00000000E+00  0.00000000E+00  0.00000000E+00
  0.00000000E+00  0.00000000E+00  0.00000000E+00
  0.00000000E+00  0.00000000E+00  0.00000000E+00
  0.00000000E+00  0.00000000E+00  0.00000000E+00
  0.00000000E+00  0.00000000E+00  0.00000000E+00
  0.00000000E+00  0.00000000E+00  0.00000000E+00
  0.00000000E+00  0.00000000E+00  0.00000000E+00
  0.00000000E+00  0.00000000E+00  0.00000000E+00
  0.00000000E+00  0.00000000E+00  0.00000000E+00
  0.00000000E+00  0.00000000E+00  0.00000000E+00
  0.00000000E+00  0.00000000E+00  0.00000000E+00
  0.00000000E+00  0.00000000E+00  0.00000000E+00
  0.00000000E+00  0.00000000E+00  0.00000000E+00
  0.00000000E+00  0.00000000E+00  0.00000000E+00
  0.00000000E+00  0.00000000E+00  0.00000000E+00
  0.00000000E+00  0.00000000E+00  0.00000000E+00
  0.00000000E+00  0.00000000E+00  0.00000000E+00
  0.00000000E+00  0.00000000E+00  0.00000000E+00
  0.00000000E+00  0.00000000E+00  0.00000000E+00
  0.00000000E+00  0.00000000E+00  0.00000000E+00
  0.00000000E+00  0.00000000E+00  0.00000000E+00
  0.00000000E+00  0.00000000E+00  0.00000000E+00
  0.00000000E+00  0.00000000E+00  0.00000000E+00
  0.00000000E+00  0.00000000E+00  0.00000000E+00
  0.00000000E+00  0.00000000E+00  0.00000000E+00
  0.00000000E+00  0.00000000E+00  0.00000000E+00
  0.00000000E+00  0.00000000E+00  0.00000000E+00
  0.00000000E+00  0.00000000E+00  0.00000000E+00
  0.00000000E+00  0.00000000E+00  0.00000000E+00
  0.00000000E+00  0.00000000E+00  0.00000000E+00
  0.00000000E+00  0.00000000E+00  0.00000000E+00
  0.00000000E+00  0.00000000E+00  0.00000000E+00
  0.00000000E+00  0.00000000E+00  0.00000000E+00
  0.00000000E+00  0.00000000E+00  0.00000000E+00
  0.00000000E+00  0.00000000E+00  0.00000000E+00
  0.00000000E+00  0.00000000E+00  0.00000000E+00
  0.00000000E+00  0.00000000E+00  0.00000000E+00
  0.00000000E+00  0.00000000E+00  0.00000000E+00
  0.00000000E+00  0.00000000E+00  0.00000000E+00
  0.00000000E+00  0.00000000E+00  0.00000000E+00
  0.00000000E+00  0.00000000E+00  0.00000000E+00
  0.00000000E+00  0.00000000E+00  0.00000000E+00
  0.00000000E+00  0.00000000E+00  0.00000000E+00
  0.00000000E+00  0.00000000E+00  0.00000000E+00
  0.00000000E+00  0.00000000E+00  0.00000000E+00
  0.00000000E+00  0.00000000E+00  0.00000000E+00
  0.00000000E+00  0.00000000E+00  0.00000000E+00
  0.00000000E+00  0.00000000E+00  0.00000000E+00
  0.00000000E+00  0.00000000E+00  0.00000000E+00
  0.00000000E+00  0.00000000E+00  0.00000000E+00
  0.00000000E+00  0.00000000E+00  0.00000000E+00
  0.00000000E+00  0.00000000E+00  0.00000000E+00
  0.00000000E+00  0.00000000E+00  0.00000000E+00
  0.00000000E+00  0.00000000E+00  0.00000000E+00
  0.00000000E+00  0.00000000E+00  0.00000000E+00
  0.00000000E+00  0.00000000E+00  0.00000000E+00
  0.00000000E+00  0.00000000E+00  0.00000000E+00
  0.00000000E+00  0.00000000E+00  0.00000000E+00
  0.00000000E+00  0.00000000E+00  0.00000000E+00
  0.00000000E+00  0.00000000E+00  0.00000000E+00
  0.00000000E+00  0.00000000E+00  0.00000000E+00
  0.00000000E+00  0.00000000E+00  0.00000000E+00
  0.00000000E+00  0.00000000E+00  0.00000000E+00
  0.00000000E+00  0.00000000E+00  0.00000000E+00
  0.00000000E+00  0.00000000E+00  0.00000000E+00
  0.00000000E+00  0.00000000E+00  0.00000000E+00
  0.00000000E+00  0.00000000E+00  0.00000000E+00
  0.00000000E+00  0.00000000E+00  0.00000000E+00
  0.00000000E+00  0.00000000E+00  0.00000000E+00
  0.00000000E+00  0.00000000E+00  0.00000000E+00
  0.00000000E+00  0.00000000E+00  0.00000000E+00
  0.00000000E+00  0.00000000E+00  0.00000000E+00
  0.00000000E+00  0.00000000E+00  0.00000000E+00
  0.00000000E+00  0.00000000E+00  0.00000000E+00
  0.00000000E+00  0.00000000E+00  0.00000000E+00
  0.00000000E+00  0.00000000E+00  0.00000000E+00
  0.00000000E+00  0.00000000E+00  0.00000000E+00
  0.00000000E+00  0.00000000E+00  0.00000000E+00
  0.00000000E+00  0.00000000E+00  0.00000000E+00
  0.00000000E+00  0.00000000E+00  0.00000000E+00
  0.00000000E+00  0.00000000E+00  0.00000000E+00
  0.00000000E+00  0.00000000E+00  0.00000000E+00
  0.00000000E+00  0.00000000E+00  0.00000000E+00
  0.00000000E+00  0.00000000E+00  0.00000000E+00
  0.00000000E+00  0.00000000E+00  0.00000000E+00
  0.00000000E+00  0.00000000E+00  0.00000000E+00
  0.00000000E+00  0.00000000E+00  0.00000000E+00
  0.00000000E+00  0.00000000E+00  0.00000000E+00
  0.00000000E+00  0.00000000E+00  0.00000000E+00
  0.00000000E+00  0.00000000E+00  0.00000000E+00
  0.00000000E+00  0.00000000E+00  0.00000000E+00
  0.00000000E+00  0.00000000E+00  0.00000000E+00
  0.00000000E+00  0.00000000E+00  0.00000000E+00
  0.00000000E+00  0.00000000E+00  0.00000000E+00
  0.00000000E+00  0.00000000E+00  0.00000000E+00
  0.00000000E+00  0.00000000E+00  0.00000000E+00
  0.00000000E+00  0.00000000E+00  0.00000000E+00
  0.00000000E+00  0.00000000E+00  0.00000000E+00
  0.00000000E+00  0.00000000E+00  0.00000000E+00
  0.00000000E+00  0.00000000E+00  0.00000000E+00
  0.00000000E+00  0.00000000E+00  0.00000000E+00
  0.00000000E+00  0.00000000E+00  0.00000000E+00
