Mo  S Li 
 1.0000000000000000
    27.1203981867000010    0.4023603500000000   -2.4028070269000001
     0.3017446571000000   23.3624652224999991   -0.4376913698000000
    -7.1295779436000002   -0.2894054832000000   10.3645110117999995
  48 208   1
Cartesian
  9.7788590799601671  2.0715583931260007  5.6475022220767679
 18.8847901171990742 10.0322633464235995  4.5426949960907148
 20.7264836857870378 13.4269024819087175 -1.9485156126633019
 18.5956410327949477 18.7310980399518954  6.1918658419937831
  6.5388412196277628 10.8476670903875174  0.8212213000119309
 11.9882891217660141 12.5248699280242519  2.3799682535985083
 12.5037361258385342 21.3752959126251056  5.7170532160105472
 -3.3251434724578468 22.6364435471302698  7.0790937336955713
 19.7786995490165509  6.0082226333579394 -0.5245404917097712
 21.4299041662185559 21.3834039379578371  4.8782130442842915
  9.6048691878053596 22.6438589034435260 -0.4316428949886478
 18.3957544900560670 12.0974161916301455 -0.7015715797562045
 19.5525577268597068 16.1170025611299401  5.1649683963954898
 22.5048406653459097  6.4607935102832723 -0.2569113018368542
  1.2143956529149842 12.5654256920364986  5.0700028706496321
  4.7513053353285706 21.3737287619784766  8.5531019462893312
 18.8024244458333634 21.9327323803929701  5.4003656504255568
 15.3747863364307609  1.8423654972351544  0.8463709776196855
 15.8144481650426325  9.1149653845347611  3.9590277862060814
 14.4479026874552332 11.6217213547814531  0.7109036039262162
  7.2761266986388371  2.0801798485714693  2.3943143914474136
 19.4482284878812948 20.1298413935585607  3.1405552284874223
  2.3925554685382688 15.9192832235024060  4.3173641274936410
 12.7965772430650304  2.6058033954655277 -0.4601409100242873
 12.3080107356344506  1.9754554134328535  4.4069108832221673
  6.5582604027979805  4.4498029725841386  8.2898277486406027
 16.2722737009723097  4.2977029058073803 -0.4701990662399145
  6.5316194974618504  8.3057518012394649  0.0112200028302165
 22.6782399211400083 22.9427430445449403 -2.0599406719759989
 13.4054573970008164 10.2907352986678990  2.9516988664310979
  7.6244779771476443 18.2146618881756623  1.4746251132407380
 13.3630588084208508 23.1893245100825673  0.1053882920818798
 -6.1991442498917255  4.2454262131385674  9.6947640117838585
 20.4050370519472857 16.0309078520415653  2.5431212446754428
  5.6197456348646124 17.5902051380053663 -0.3677942210692315
 10.6986774653695473 23.2258031875093778  3.6982413968365071
 13.7463273070007581  0.6971033730851864  6.6811541746322733
 17.6633482997970184  3.0938448735949398  1.6525967936058747
 12.6111619004309805 20.5553739694127984  0.7865356719491159
  0.1347886771817914 10.7613923512376140  6.8220186432926164
  4.6992803072744209 15.5702713013949001  5.9475224110706248
 -3.4745131175747264  3.9134576951684359  8.9144024724569402
 -0.8053494688883082  5.0115403017443683  9.2529308886354737
  3.8599929995071882  4.1190459854820398  8.3522947776109220
  2.8543564418663365 17.7787818184879072  6.2102398192677049
  3.5181444763558876  5.7577748881705286  2.6225217175259226
 23.6663701884383322 13.8948531662245269 -2.3345918626780855
  5.4461002328298340  3.9867019916286588  1.4477112812785364
  4.5611162482665488 20.6679311075984380  1.6951850247085396
  6.4526872543961105 13.6096889058169008  5.9594693921429398
 -0.7813657448485710 18.1284962611668412  2.9650508620427365
 10.1713203051986394  2.1334463113767694  3.3539944281872733
  7.5784403254300070 21.7884550859804484  0.4860581516112558
  7.3572489551734828  4.3968155024074420  2.8150770176665327
 -3.4606466209693711 10.7965450504914173  6.3973967494814064
 17.4092061779271248  2.2021349204612330 -0.4932963773982764
 -0.7903393785827362 11.6390807623468024  4.7918369488220698
 12.9220615686904932 14.8343518534159244  6.7856725549423516
  8.4019302754046699  1.4375050518654655  0.5429080036352536
 14.3894862510996493 18.9938551637143007  1.4030255109506111
 -4.5111979615210069  6.1812856056503938  9.5564971333937905
 20.3292491263657453 18.2281418420779922  1.4097190747540893
 25.9532335230741751 13.0687823284795606 -2.1646524027678233
 16.8115400601238001 11.1929554826897721  4.2308335975441578
  1.8718716561419966  1.2463679322678634  3.8529389677092420
 -6.0597838859435189 13.9146108147057337  8.2490789831346287
 24.6309970876162438 12.5837803316207051 -0.6776464480142509
  1.9717324972398835 17.1700395755094135  2.3063724171465640
 13.5197127359175617  5.3042519914996769  5.3552481620199233
 -2.4538617330771908  1.3199570685092519  4.1305868154112124
  4.7388312175680030  9.3763795156001102  1.3639396107736648
  1.4484006096164477  5.1797261530624654  3.6872030722715707
 14.0266337570350039 10.0691368036943079  5.3002701396033309
  0.7395160095148191  3.6210810998807665  8.1264854027072371
  8.7599692626524295 17.1477938750908621  7.8099035674965682
 11.1148671800281402  4.6588785759469804  8.4786958107409145
 19.5838145622117850  8.1898061254409473 -1.1290302844225237
 21.0729604220873270  5.8639154960152426  1.4211677873478357
 21.4050267580175202  5.1642403623323547 -1.8921069779437378
  0.5145390539374254 14.3574281250998492  3.5200926677083397
  8.9457032239621661 14.6568771665530573  1.9228235647662211
 14.1084761085278760 22.0028181056005714  2.0268793315225606
 -2.0357237289216652 11.5817327386249893  7.6420135136861083
  9.6564476990463515 10.7858562470371346  8.2333923226727279
  4.2747766882450424 10.9803405165909922  3.8760579035009166
  2.0844076923268040  9.0744971234958740  6.5575504086334169
  9.2080470838095163 15.0090185898491058  7.4467190572363604
  2.9701879194419814 15.4556019906147952  1.8870801223888922
 14.2959184002655491 12.4660704891551291  3.0195451785103531
  1.6810365200078803  0.4654200623592044  5.7626035915234262
 20.0340689589914156 11.1757072128860333  0.6685043668436031
  6.8491032947312354 15.3361352717065138  4.9442069939971525
  5.0889249412058435 18.6187152225401995  1.7865731153682918
 19.9316696165916092 22.4931385665178425  3.4150006284168839
 20.1026599349933228 11.6751723460289973  3.9651099492181388
 -0.1501463578452792  6.0309766169650851  0.7843479681917792
 11.2714845538103123 22.5674611190626031  1.3808698579853047
  9.4696862552539880 16.6827981964538417  2.2907750475117821
 11.8513346735116496  2.1742119569562739  6.7504562242518000
 -3.0224057764438532  8.7929982223204863  6.3967596671336340
 21.7297961551402601  4.5726969732496858  5.0151009404121192
 22.3058769903150136  1.6557878401357871  4.1391627609293273
 -0.9749313641786499  8.6817553212110870  6.1803732702923844
  8.3019048232106805  6.6298092161168727 -0.3713587848999875
 11.2364206092733756  0.5825262319202952 -0.8599628070651224
  6.5593269125958633 13.1497283613668703 -0.0114271253308816
  7.5281252411124209 19.9904772598927813  5.0238396677427595
 10.9993984621146925 21.3506626967652018  7.5083756721910024
 11.9334379646774771 14.4833878323640537  3.6524063603854406
  7.9996444277086365  7.7077867108113596  6.2259254057934692
 14.7383528667995733  2.0578979858416160  5.2286671353039305
 18.1148860342965179  8.9909192097545532  2.5425901775741684
 21.3648414736842405 21.7638565598067153 -0.8257124353188411
  5.3831166643229391 20.3278290252064089  5.4586044413391814
 12.3218678498651624 11.3609481251231852  7.6219089696074231
 -1.7279061591432612  3.2728307392432474  4.4867833173122564
 21.4003473143085543  1.6398564943851519 -1.5332479551767459
 12.4127900005433247 18.2805865110160326  3.9678866692688617
 -1.4230895885172279 15.0272044668251734  4.0737539965045881
 -2.3530845448542563  9.6389048559733386  9.7207172968938789
  5.1424655334638869  1.6127214698734247  1.9935089257792851
 21.6667413576630494  8.5124369915344733 -0.8173541436504305
  5.3236557631498869  6.4178473237053852  1.0396048611815492
  8.0134838314912429 23.3279421967538880  3.1709833564026733
 18.8779805427677907  3.3723584301412153  3.7395320802602807
 18.4676327046752284  4.9514381629844397  6.6184985487676098
  2.4318570041424690 12.4261329720854139  0.1745561431369794
  5.5486503504534923 12.8361235597290424  1.7758215022557291
  3.7919623932120530  7.5961979322026547  4.0533421690113229
 18.7717053140245795 14.6707869395828165  3.4435798800727087
 19.6687656319001576  8.0468985255888672  3.4781484014480761
 23.0003156728681653 21.7565071080399264  3.0512931158289427
 15.5318184731295652  4.0178406882307067  1.9447116092906804
 10.0011949452721520  6.3645480941400780  3.7879319023569984
  9.7966411446947621 23.2584560021568443  5.8863770030337079
 13.1575998012952962  1.8070726627720273  1.8800139765571311
 14.4114298140342392  0.9202240606199678 -1.1391397915641746
 -2.1055510223674476 19.3815724916368310  3.9784594869857899
  2.1310637822317022 19.7791301804297568  5.1723689657606808
  9.4612258417081385  7.0968353725650903  7.6474673932049884
 24.4804171162286401 22.2610848992035599 -0.5810189641159367
 10.0466652667682048 13.7387939239463766  3.4947045716360492
 14.8922130577080800 10.8109678841323618 -1.4206114835618673
  1.3351950000991146 19.6020379829768387  7.0276091420694238
 17.9442650686378791  5.4140849759992467  0.9643281281649961
  0.6138313971532254  9.9932731711383695  9.2051841988661725
 16.7677547294648797 23.0141693209712024  1.0030205030529968
  9.6760600685077449 17.5048831793353799  0.4764741099757790
 20.0398203887731654  9.4004295006747700  6.6183253176709202
 12.8722721057786558 18.1617884797476101  0.4085525854811692
  3.4062528689926226 16.0987691325047777  7.9454526323017447
  2.1083787786716166  4.6187315004099920  6.9220393858067899
 -1.2235867386723942 21.7578739545136628  7.6609388945291235
 15.3478712425082158  6.5741537191036956 -1.2869808061874108
 -3.6229518728580667 18.0294750829514925  9.2031275423913179
 -5.0330917395374106 22.8637220011222269  8.8005161677447745
 11.1246275099615346 10.6752322192649540  3.4509670314583270
 15.5556505381891217  5.3723548722515000  5.0402501635904846
  2.2987623948848279 11.7031269204496802  7.0559238499566277
 19.7953956937484179  2.4042532564491692  2.2184391749665324
  3.3964734333560749 13.9127062050919896  5.0241222215221359
  7.6838454778743124 13.8709174878417603  7.8996153322543217
 10.1592164452185703 17.8594654534336890  6.5305802312721450
 -6.5841854144690091  2.1488363055461366 10.0825369276009393
  7.9428140374050393  9.1451476581860938  1.6115675015416098
 11.2837041638430104 19.4398443113626485  2.6988523830603359
 17.3637754216148181 20.6254911874750420  4.3071605167626981
 15.2158200517112956  9.3919956680618988  1.6632193773099540
 -2.3938271372027087 17.2180781113634715  7.7499514820458959
  5.1152837921341359  5.6678323415787037  6.6742054493189693
  9.1597933741060231  8.1525264508983053  4.6455318798481260
  1.8740051457680316  8.0925719063762340  4.7926879959109732
 18.7159985272543281 22.6580716194781893  0.2894108641782083
  8.5249411687212273  3.2576858305994500  7.5534614467102497
 14.9470884308553185 21.9254535256956160  6.1662076325959170
  8.0949801930045506 20.4249755481936432  1.9516597764033174
 20.0945059552937124 20.5410994805624547  6.8053050372289281
 19.8588265640746577 17.2221082858010881  7.3006731595982801
 15.8147102443675571 15.3692944777860241  5.0330502101330019
  1.1382265253792581  6.6806179165903012  2.3198455894496268
 24.0725301661115871  4.5221848200844512 -0.7626022973629937
 21.5385577553899275 19.2919985173665438  3.7532860817977811
 12.8259758351603050 13.4194002554313752  0.1861563351326716
 21.2662206210239475  6.5972181375531331  5.5564636932036127
 -1.9371126201756002 15.3931267219511856  8.5795412933924968
  9.0707306342907437  5.6320906497133985  2.1544985589646330
 21.6124983385921325 12.2265867115845772 -0.0953031943245551
  2.9196272683573241  4.1342047401474495  0.8550717311896356
 23.6975818068825035 20.4551506009361503  0.1777050572846785
 10.8473879474803674 10.1710026781272873 -0.0739197853336297
 17.1130005690834253  8.2614750038580436  5.9236663228896287
  4.3617571487591746 17.3606798978669623  4.5154582487183230
 17.8890648465949731 23.1433401411805910  7.3792569205631091
  2.5213264163342730 20.5935993823216883  1.2634298266889361
 -1.4325908868581712  2.7604710300547559  9.6639463608640899
  1.3131589751042749 13.9867797845657922 -0.1146041331842803
 -1.0109463410706827 22.5853403923255058  5.8120276424080677
  4.8725167929747597 19.2254783133126210  7.1614449445903468
  2.3418240679467335 11.1683891331127096  3.6426141269096517
  0.1945909550660488  6.9932747682341185  8.2755501383897343
 18.3614098776746530 17.9639505542038087  4.0402849496920847
  0.6488416538972198  0.0669121301600864  2.6300009119389505
  7.3587083968293818  1.6378482671160024  4.7796477424467581
 13.7700395358399614 19.6599588178774454  4.6818104193658687
  0.9145186464715903 16.5690503333729389  5.9382704573796534
 12.5420316706776465  4.3159556924701663  3.8533723085391141
 16.8466563762498431 12.0545275427118170  0.9915078871905566
 14.3242635543683008 16.2108986398307771  6.1240489702488032
  9.2314955150768778  4.3802219494756756  5.9274422383225636
  5.3313375419604387  2.5633068704100959  7.4937401220101911
 18.0792840485616360  9.9080355813746372  6.8566343139999439
 14.8598601296247708 13.9812307852256765  0.3187745056335133
 13.7558196761845863  4.6766969185764626  0.2077870759618566
 12.5227161820860484 20.0033872268236443  7.7956986760724822
 17.3657541087504086  3.6000812851026778  7.6497334364986784
 16.2127697917911497  6.7049918588211073  3.5989273550998737
 16.7407735071816468 18.7395737130115165  7.2467010944439325
 10.7246113568005903  3.7721533758953143  0.1296817491762721
  7.0991644010996193 11.9950993082311577  2.8757864227395320
 10.5136743045275871 20.3208166913889698 -0.4612515459418146
 18.8168164202757389 14.2915019073843155 -0.7747026112251258
  1.2940281247069079 21.4645674541935385  2.6679887700862355
 10.6398684248729261 20.8383843097626595  4.2648707839218103
 12.9984641683077005 22.9917979581767220  4.0197769366431055
  4.5927917462021952  4.2231681516880650  3.8250439812027373
 11.9464036779428344 17.9193534691975742  7.5540488335346350
 13.5229966814011213  8.2919845068922484  4.4371700764709008
 21.5088891749821300 17.0717527711571577  4.3522860955908600
 25.3142298808104975 16.7620016655301391  0.1905050052309699
  2.3202307783481766 21.8425968143712517  7.7766092512943379
  6.4191221964094680 16.1556198372514146  1.2896777163582349
  5.5445539211897810 22.1683959841452420  6.3153870081912400
 21.9617537392035729 14.7207158206427753  1.9202363271692353
 16.5528135770412632  1.1740186608583871  2.8861782166334251
  4.8911038947002421  6.2176829261667166  8.6559907224120050
 17.8888548097803550  0.7886513782036393  6.0113554150152311
 22.7083743618897671  1.9561407614040269  2.0106116185250067
 18.9497931553317933 20.6832606161536141  0.9382683609056245
 -0.1074430068664491  0.9756348011282426  6.6119484566381148
 -3.1721942515202199  1.8215396086971571  7.6878314634723557
 14.0716370185045037 21.1727558088433661 -1.0208049061238540
  5.4679348933801615 16.1865616833453707  8.1246989909623881
  0.8181720957437546 13.1048154569987396  7.4583961959438856
 10.5072958215731624 12.1273263888144847  0.4802750540106617
  7.6852664357456746 18.2474544167406911  4.0752756737244269
 17.4456614258162759 14.9878525484507819  6.3232405319845180
 -2.3109722118402107  5.3692130676968342  7.5626953517081397
 -3.8499795002503743 21.2003462598319068  8.9179460167424551
 22.3266038415693551 15.2202374288014592 -1.1633763360286262
 -1.1635266118392178  3.9032482411371401  2.6635021184657708
  7.2575303963713509 19.0166436241816896 -0.7849074614501675
 24.3370543121871101  8.0546157111046739 -0.1892791474625393
 24.1027694994121582  6.9492873975552163  1.4841340172942696
 18.9978430947361083 16.8023005366841360  0.7818388137035365
 12.7567775560651047  9.6868252898013534  0.6092439533773634
 15.2701892192037398 12.2745571219245679  6.8289750653048458
  5.1011100806944407 15.2661619646586058  3.0046645654790143
