Pd  C  O 
 1.0000000000000000
     8.3099002837999993    0.0000000000000000    0.0000000000000000
    -4.1549501418999997    7.1965847487000003    0.0000000000000000
     0.0000000000000000    0.0000000000000000   16.5235004425000014
  36   1   2
Selective dynamics
Cartesian
  8.3051740520922372  0.0066705312280805  7.2240333232898966   T   T   T
 -0.0059831282043160  1.6069973743847230  2.6477257109062280   F   F   F
  1.3784257459270264  0.8079312290278767  4.9297424251834983   T   T   T
  2.7636993689768956  0.0080125006946031  7.2213075769098625   T   T   T
  2.7639559333947092  1.6069973743847230  2.6477257109062280   F   F   F
  4.1489213518903671  0.8071562541765637  4.9289200504042512   T   T   T
  5.5343759571861346  0.0079757016819216  7.2212764271959076   T   T   T
  5.5339780939965992  1.6069973743847230  2.6477257109062280   F   F   F
  6.9192397244381576  0.8068675946147851  4.9297041093793332   T   T   T
  6.9193583232614460  2.4059600005847277  7.2221446402715666   T   T   T
 -1.3909942085052609  4.0059069345163794  2.6477257109062280   F   F   F
 -0.0063015851565165  3.2065928527607146  4.9293540174706534   T   T   T
  1.3793491220810472  2.4068640106102075  7.2223643138268123   T   T   T
  1.3789448530937642  4.0059069345163794  2.6477257109062280   F   F   F
  2.7635899046879917  3.2064676354019017  4.9282493133720742   T   T   T
  4.1486633393219607  2.4067029311467607  7.2198250495420959   T   T   T
  4.1489670136956542  4.0059069345163794  2.6477257109062280   F   F   F
  5.5340511079536601  3.2062130728605198  4.9290469416629490   T   T   T
  5.5338225731258390  4.8052482928521174  7.2209160178632699   T   T   T
 -2.7759637393047738  6.4047445288005260  2.6477257109062280   F   F   F
 -1.3910295545462159  5.6051901282873047  4.9285840267468650   T   T   T
 -0.0065008867451670  4.8060094539415159  7.2216109859721778   T   T   T
 -0.0060246777057485  6.4047445288005260  2.6477257109062280   F   F   F
  1.3785437160684604  5.6045017953197442  4.9290254762225434   T   T   T
  2.7641516232435803  4.8055768423836289  7.2204776839234306   T   T   T
  2.7639974828961416  6.4047445288005260  2.6477257109062280   F   F   F
  4.1488709119530744  5.6054926502258962  4.9292244139191981   T   T   T
  8.3039171555956539  0.0077723115286082  0.3861542053412234   F   F   F
  2.7639559333947390  0.0077723115286082  0.3861542053412234   F   F   F
  5.5339780939966285  0.0077723115286082  0.3861542053412234   F   F   F
  6.9189476247961403  2.4066099058127550  0.3861542053412234   F   F   F
  1.3789864025952261  2.4066099058127550  0.3861542053412234   F   F   F
  4.1490085631971159  2.4066099058127550  0.3861542053412234   F   F   F
  5.5339365444951953  4.8055194659444114  0.3861542053412234   F   F   F
 -0.0060246777057187  4.8055194659444114  0.3861542053412234   F   F   F
  2.7639974828961709  4.8055194659444114  0.3861542053412234   F   F   F
  1.5853813559443275  0.8908682869611292 12.0451046130804826   T   T   T
  1.1236255361944982  1.9722484001537821 11.9918303118950007   T   T   T
  2.0469260849974389 -0.1902355982813201 12.0993112765657234   T   T   T
