final_re                                
   1.00000000000000     
     8.3099002837999993    0.0000000000000000    0.0000000000000000
    -4.1549501418999997    7.1965847487000003    0.0000000000000000
     0.0000000000000000    0.0000000000000000   16.5235004425000014
   Pd   C    O 
    36     1     2
Selective dynamics
Direct
  0.9998947040665090  0.0009269023378465  0.4371975144388293   T   T   T
  0.1109300000000033  0.2233000000000018  0.1602400000000017   F   F   F
  0.2220104929644775  0.1122659229676719  0.2983473412512361   T   T   T
  0.3331358131705381  0.0011133754377103  0.4370325526385425   T   T   T
  0.4442599999999999  0.2233000000000018  0.1602400000000017   F   F   F
  0.5553536233777846  0.1121582364916038  0.2982975712414183   T   T   T
  0.6665520092337693  0.0011082620382345  0.4370306674620896   T   T   T
  0.7775999999999996  0.2233000000000018  0.1602400000000017   F   F   F
  0.8887092137297475  0.1121181258597057  0.2983450223839780   T   T   T
  0.9998242690653008  0.3343196925485166  0.4370832115993733   T   T   T
  0.1109300000000033  0.5566400000000016  0.1602400000000017   F   F   F
  0.2220274129112880  0.4455714710147695  0.2983238348692684   T   T   T
  0.3332113036187755  0.3344453090815037  0.4370965062130667   T   T   T
  0.4442599999999999  0.5566400000000016  0.1602400000000017   F   F   F
  0.5553429884264843  0.4455540714616224  0.2982569783274343   T   T   T
  0.6664549194739355  0.3344229263167519  0.4369428302838317   T   T   T
  0.7775999999999996  0.5566400000000016  0.1602400000000017   F   F   F
  0.8887181357690528  0.4455186987744004  0.2983052506831407   T   T   T
  0.9997874444676887  0.6677123191969834  0.4370088555382849   T   T   T
  0.1109300000000033  0.8899699999999982  0.1602400000000017   F   F   F
  0.2220397852992753  0.7788680775696879  0.2982772351353641   T   T   T
  0.3331267368643677  0.6678180861845168  0.4370509149137378   T   T   T
  0.4442599999999999  0.8899699999999982  0.1602400000000017   F   F   F
  0.5552779430168863  0.7787724303993152  0.2983039515976061   T   T   T
  0.6665125353666912  0.6677579727316786  0.4369823276278482   T   T   T
  0.7775999999999996  0.8899699999999982  0.1602400000000017   F   F   F
  0.8887234924939631  0.7789101144453943  0.2983159912799571   T   T   T
  0.9998199999999997  0.0010800000000017  0.0233699999999999   F   F   F
  0.3331500000000034  0.0010800000000017  0.0233699999999999   F   F   F
  0.6664900000000031  0.0010800000000017  0.0233699999999999   F   F   F
  0.9998199999999997  0.3344099999999983  0.0233699999999999   F   F   F
  0.3331500000000034  0.3344099999999983  0.0233699999999999   F   F   F
  0.6664900000000031  0.3344099999999983  0.0233699999999999   F   F   F
  0.9998199999999997  0.6677499999999981  0.0233699999999999   F   F   F
  0.3331500000000034  0.6677499999999981  0.0233699999999999   F   F   F
  0.6664900000000031  0.6677499999999981  0.0233699999999999   F   F   F
  0.2526774485280206  0.1237904253294671  0.7289680933526250   T   T   T
  0.2722419768791026  0.2740533835177931  0.7257439398888436   T   T   T
  0.2331067094627846 -0.0264341496590705  0.7322486732560102   T   T   T
 
  0.00000000E+00  0.00000000E+00  0.00000000E+00
  0.00000000E+00  0.00000000E+00  0.00000000E+00
  0.00000000E+00  0.00000000E+00  0.00000000E+00
  0.00000000E+00  0.00000000E+00  0.00000000E+00
  0.00000000E+00  0.00000000E+00  0.00000000E+00
  0.00000000E+00  0.00000000E+00  0.00000000E+00
  0.00000000E+00  0.00000000E+00  0.00000000E+00
  0.00000000E+00  0.00000000E+00  0.00000000E+00
  0.00000000E+00  0.00000000E+00  0.00000000E+00
  0.00000000E+00  0.00000000E+00  0.00000000E+00
  0.00000000E+00  0.00000000E+00  0.00000000E+00
  0.00000000E+00  0.00000000E+00  0.00000000E+00
  0.00000000E+00  0.00000000E+00  0.00000000E+00
  0.00000000E+00  0.00000000E+00  0.00000000E+00
  0.00000000E+00  0.00000000E+00  0.00000000E+00
  0.00000000E+00  0.00000000E+00  0.00000000E+00
  0.00000000E+00  0.00000000E+00  0.00000000E+00
  0.00000000E+00  0.00000000E+00  0.00000000E+00
  0.00000000E+00  0.00000000E+00  0.00000000E+00
  0.00000000E+00  0.00000000E+00  0.00000000E+00
  0.00000000E+00  0.00000000E+00  0.00000000E+00
  0.00000000E+00  0.00000000E+00  0.00000000E+00
  0.00000000E+00  0.00000000E+00  0.00000000E+00
  0.00000000E+00  0.00000000E+00  0.00000000E+00
  0.00000000E+00  0.00000000E+00  0.00000000E+00
  0.00000000E+00  0.00000000E+00  0.00000000E+00
  0.00000000E+00  0.00000000E+00  0.00000000E+00
  0.00000000E+00  0.00000000E+00  0.00000000E+00
  0.00000000E+00  0.00000000E+00  0.00000000E+00
  0.00000000E+00  0.00000000E+00  0.00000000E+00
  0.00000000E+00  0.00000000E+00  0.00000000E+00
  0.00000000E+00  0.00000000E+00  0.00000000E+00
  0.00000000E+00  0.00000000E+00  0.00000000E+00
  0.00000000E+00  0.00000000E+00  0.00000000E+00
  0.00000000E+00  0.00000000E+00  0.00000000E+00
  0.00000000E+00  0.00000000E+00  0.00000000E+00
  0.00000000E+00  0.00000000E+00  0.00000000E+00
  0.00000000E+00  0.00000000E+00  0.00000000E+00
  0.00000000E+00  0.00000000E+00  0.00000000E+00
