Mo  S Li 
 1.0000000000000000
    27.1203981867000010    0.4023603500000000   -2.4028070269000001
     0.3017446571000000   23.3624652224999991   -0.4376913698000000
    -7.1295779436000002   -0.2894054832000000   10.3645110117999995
  48 208   1
Cartesian
  9.7790955006061289  2.0740503796684608  5.6514209096083130
 18.8874574704814364 10.0305915166448933  4.5344871711201149
 20.7181697194224412 13.4237078349717667 -1.9530939396585909
 18.5957627909312571 18.7184289052785857  6.1824614011475294
  6.5376235994615204 10.8457715201495439  0.8245765214628710
 11.9880654642765911 12.5239913832142467  2.3796959823540358
 12.5046279432485310 21.3771197565664011  5.7204203385441783
 -3.3267219661425802 22.6306091269056076  7.0848254735918736
 19.7803825502442301  6.0072293138048476 -0.5229416579838573
 21.4297812785919035 21.3755993061646095  4.8793214046968618
  9.6054739244526957 22.6461433391918519 -0.4285304918510269
 18.3910234137276625 12.0969007821618781 -0.7065550052127728
 19.5435924560810115 16.1119049809663899  5.1488725844026968
 22.5069456616465438  6.4583437440261378 -0.2556496508646995
  1.2142820216075403 12.5720830049650534  5.0779062942623279
  4.7538666024824234 21.3767286469342324  8.5569872595083929
 18.8031322315528548 21.9257785083519856  5.3976191322492069
 15.3745614142628462  1.8458871785944027  0.8501839480860639
 15.8171528424137300  9.1138990620267517  3.9564518424174118
 14.4467829991182430 11.6217595999284349  0.7100906143155588
  7.2749270215589252  2.0819213347130692  2.3975101927989031
 19.4481482101788785 20.1270165870426396  3.1372018560462762
  2.3988559455683101 15.9169160245118810  4.3306787633392707
 12.7960267419631499  2.6084551524128701 -0.4566371022424580
 12.3086277431380005  1.9776434502878097  4.4109727688505043
  6.5574810670734935  4.4521344011134696  8.2914943785409019
 16.2718283964127970  4.3009613577145940 -0.4673787656886007
  6.5310056385317603  8.3040168657525086  0.0138712360442359
 22.6818187066978609 22.9400039576145325 -2.0598639796980032
 13.4055490259729133 10.2894588459789773  2.9511843963539803
  7.6254364611155525 18.2163286201233738  1.4723261382406287
 13.3637002640809364 23.1930129517292194  0.1101875113387192
 -6.2002619233501779  4.2425407814696952  9.6961958523059231
 20.4064811584605259 16.0302193661632302  2.5276040054605664
  5.6262342049314311 17.5912136967702857 -0.3755939656542555
 10.6990509583189155 23.2294853816030837  3.7007469480204005
 13.7457104422581331  0.6953046681040302  6.6848166073165407
 17.6633733024989610  3.0978567759595874  1.6549211458302788
 12.6120911639970092 20.5584603085606403  0.7899129834019792
  0.1326816614952904 10.7640497304097771  6.8255837576755249
  4.7074674011966735 15.5726882525418322  5.9568494083996679
 -3.4755433675697778  3.9128601068148923  8.9160443273059844
 -0.8068636153929211  5.0108511895031009  9.2543836805325892
  3.8593156232973462  4.1196712397423489  8.3546369204333093
  2.8608005662145102 17.7823627548711940  6.2180163292946116
  3.5158708647408536  5.7583856728409701  2.6242923412096539
 23.6663085659548926 13.8939222406064165 -2.3411559668464936
  5.4447425307017321  3.9872429133563974  1.4500167277952727
  4.5553518048416652 20.6554259541512302  1.6999852919915044
  6.4632061227879669 13.6154041823286764  5.9606758230217114
 -0.7640716365793768 18.1273246295111079  2.9604621560036173
 10.1717977841039833  2.1372584705820086  3.3577640659706152
  7.5766757129799300 21.7913719806556436  0.4860733089356949
  7.3556243823897267  4.3987540088094894  2.8178407047765641
 -3.4620163437428579 10.7987154473195961  6.4024047034533966
 17.4083042082756378  2.2051789901912242 -0.4902560968340850
 -0.7906174284504339 11.6467924983848796  4.7972400692637409
 12.9175062982821451 14.8326640864510964  6.7790474148793827
  8.4007691953657595  1.4392061229446100  0.5457261991234510
 14.3895395302867559 18.9969368966895544  1.4088476907765783
 -4.5147150469425661  6.1794450547871111  9.5580313003872543
 20.3396979048785447 18.2326899265763203  1.4025737068186885
 25.9628917421580638 13.1011370447047604 -2.1454313013749644
 16.8141172658355984 11.1920727625905734  4.2252599673260738
  1.8635432199619799  1.2381393093667199  3.8495694345165083
 -6.0991149228213457 13.8771142669507714  8.2106914552043406
 24.6266770775536301 12.5864544665855060 -0.6794762498582384
  1.9858030502733752 17.1460769367580674  2.3045697642101857
 13.5246967506720850  5.3038525121974338  5.3611840053224320
 -2.4538002837092971  1.3186649023252432  4.1411809572340301
  4.7377409784473903  9.3742783193814692  1.3660140225763098
  1.4471835362407985  5.1806133640171339  3.6901633325600565
 14.0288233891022873 10.0660442477258254  5.2994534949961478
  0.7371745152542130  3.6202453650402457  8.1272612168253477
  8.7653041870224246 17.1496483858781517  7.8168510087402900
 11.1146177512804627  4.6608068983478796  8.4807063024875742
 19.5864400627916595  8.1885680940545154 -1.1273739612585740
 21.0751791969867277  5.8635118213286797  1.4229020691747269
 21.4062435825910526  5.1619754743120545 -1.8905340449741634
  0.5168256767438900 14.3636306627793875  3.5286173747069127
  8.9440499430721250 14.6574288564197399  1.9233774220244870
 14.1089509707788654 22.0058240991738785  2.0312273729825003
 -2.0374431345636861 11.5844625138780728  7.6470450726286172
  9.6521007646927650 10.7850749094376006  8.2296160448588562
  4.2709973110221986 10.9837777340636098  3.8771626053052834
  2.0819951564015033  9.0766109571762286  6.5579034757545935
  9.2147821086357808 15.0122791131607070  7.4506612525974818
  2.9825247809925726 15.4213080461575505  1.9152924436324346
 14.2960303688523354 12.4643388678593219  3.0193312846853417
  1.6773173474008090  0.4583108834991961  5.7595454810430500
 20.0313519434480902 11.1782542646490217  0.6630689324117029
  6.8590220707399023 15.3461026084890833  4.9513765875067737
  5.0888740882830374 18.6075375349371832  1.7834382510267219
 19.9359535935097938 22.4878149517855803  3.4145459967099603
 20.1050669624068910 11.6678450300393859  3.9414086048225605
 -0.1530040646314463  6.0266005297188867  0.7862683184330764
 11.2718731885551904 22.5702289927977162  1.3839186505662990
  9.4686466013961450 16.6831743246636215  2.2918167648474075
 11.8517026232958855  2.1754368175236101  6.7542232214248896
 -3.0229721854250515  8.7951400511634308  6.3991325304824240
 21.7288564646667126  4.5704265091495309  5.0165523894985595
 22.3038858531646582  1.6505990336503489  4.1459595455843203
 -0.9757073394895319  8.6844354061808122  6.1815241266435370
  8.3010802816535083  6.6290022080441391 -0.3706402208626392
 11.2365752779460824  0.5849987427822396 -0.8556902752541993
  6.5562560500175469 13.1464086422780912 -0.0070325149297293
  7.5316672002182745 19.9918024166753199  5.0250457642122548
 10.9996324160653476 21.3493017788992923  7.5109098932751799
 11.9333210872491655 14.4832414700846908  3.6507564601555136
  7.9985300298867132  7.7095413742106738  6.2270330885533003
 14.7384879605070438  2.0573498648369792  5.2336333288642320
 18.1134018869759217  8.9838254155728823  2.5387754301030032
 21.3759391345833016 21.7513825404598506 -0.8266867224908229
  5.3877995421034832 20.3312088398518291  5.4630590979062301
 12.3196308433346502 11.3558366486014197  7.6185660996775120
 -1.7303719355616878  3.2734573649809842  4.4935692860684888
 21.3970185408396816  1.6332533410733179 -1.5271865170710228
 12.4096802504690249 18.2833599126286401  3.9704473283048598
 -1.4207699386870727 15.0351256606982329  4.0812625814728909
 -2.3532430652870264  9.6369859314986499  9.7231826225543880
  5.1409569060831286  1.6140689505719661  1.9981526931130618
 21.6699582247973659  8.5103813014197307 -0.8159682416965200
  5.3223149036088149  6.4172925681771558  1.0413696932835785
  8.0136759552540511 23.3303600410276424  3.1743360338173501
 18.8815907975617279  3.3771630471732021  3.7390586562357955
 18.4659666804572034  4.9460301718719117  6.6217382696423375
  2.4500153841030721 12.4227391898612485  0.1343600554318495
  5.5445799509753133 12.8323631245368261  1.7803697897688118
  3.7902034488421754  7.5974985775180643  4.0537687523776214
 18.7710800703591403 14.6668613816189612  3.4136225062922634
 19.6680564683609056  8.0410755013797210  3.4748476565457609
 23.0039275561851682 21.7489417416238524  3.0562994905071199
 15.5318967497376548  4.0220263808282528  1.9480862071052985
  9.9999709521472457  6.3648795761827177  3.7893688730971649
  9.7972813464061179 23.2604700442779979  5.8890828315438890
 13.1573619373352297  1.8103550885780115  1.8843463552842619
 14.4112761645784691  0.9234603246480840 -1.1350908396479018
 -2.0800760390724582 19.3892958038873395  3.9753028168299029
  2.1392509555216823 19.7796618097743924  5.1737584735669806
  9.4593236591129433  7.1015499114303946  7.6505094335080122
 24.4887602677857323 22.2687781739715049 -0.5823886468701990
 10.0463050848657467 13.7389778725678600  3.4945974523205883
 14.8880777170741787 10.8118250541022363 -1.4221237867151100
  1.3397358678021680 19.6081062322436921  7.0277905661549376
 17.9443954272937312  5.4175950978327858  0.9659968830258527
  0.6128683368643448  9.9924045127186112  9.2080786854129801
 16.7691868862900790 23.0178450792640383  1.0068569200012520
  9.6791314172493141 17.5068471881352181  0.4785175403563954
 20.0477067267130593  9.4064765867802134  6.6097951566492563
 12.8734987699930521 18.1646987106581435  0.4132013831453770
  3.4168141632328499 16.1036460198546685  7.9544656811962264
  2.1073074544770658  4.6174970208547519  6.9240035712982442
 -1.2246691412067903 21.7560431526037661  7.6697681443355306
 15.3464017847015857  6.5772065337043388 -1.2847113138208728
 -3.6177785753836575 18.0248128358760482  9.1951741647849534
 -5.0378443492746490 22.8565861683008293  8.8032762027677478
 11.1245237297111590 10.6735663833822620  3.4498584353873025
 15.5603840658901920  5.3709866014368446  5.0458322736577763
  2.2967399645970854 11.7030970816516788  7.0623493470503540
 19.7968671887589451  2.4090194053607115  2.2162842635090221
  3.4022723686613001 13.9123577545313317  5.0456007216591789
  7.6908223110643750 13.8719004290375896  7.8997981365664360
 10.1607595928980956 17.8622099487738915  6.5333851510728707
 -6.5826049250435483  2.1454288758553091 10.0833244343055561
  7.9431240733324664  9.1433990612456402  1.6132200032540003
 11.2822097113504327 19.4440431512221892  2.7009527430787461
 17.3644681427142977 20.6199170992103404  4.3023625100868186
 15.2152732949979157  9.3916599659494686  1.6610479533698757
 -2.3845005240557251 17.2228046474025831  7.7401653540256357
  5.1126248350192292  5.6684966997472710  6.6754669405059799
  9.1591164252191000  8.1533832865926108  4.6467237295193886
  1.8720717842145123  8.0917078565156242  4.7945915986977257
 18.7161365542069476 22.6595745251413874  0.2919951427574425
  8.5246565517692243  3.2593849326928912  7.5570825831574728
 14.9482319029484465 21.9244294950011209  6.1658432832495995
  8.0900376222938917 20.4272117222632303  1.9523892685662001
 20.0918400004786299 20.5284509736626966  6.8020710578750538
 19.8580865600722341 17.2045432956263262  7.2872809112600505
 15.8070270653193941 15.3573417888443409  5.0165311201926253
  1.1349797999133291  6.6795294760907842  2.3208308077978890
 24.0728435669081620  4.5167257273288577 -0.7588804459804619
 21.5370556228084986 19.2850279011762282  3.7519802779772267
 12.8253448797210492 13.4203608798334617  0.1870537120226698
 21.2624750829602682  6.5946897904968758  5.5578220755850447
 -1.9249553817110709 15.3973902786035595  8.5671993230236705
  9.0691990917929068  5.6325707787359720  2.1561529890049029
 21.6102935468899844 12.2282883983290631 -0.1009867957465808
  2.9185224702256800  4.1338644715643813  0.8569800510197478
 23.7166315140651918 20.4588624231203546  0.1789201668943467
 10.8467166883068025 10.1714058916500729 -0.0741928785914911
 17.1183645787724004  8.2681758081213097  5.9253105829287520
  4.3663504080492457 17.3603398443227306  4.5223573005261875
 17.8894137998525800 23.1394423423862357  7.3750526254601789
  2.5147005069890667 20.5762350069425253  1.2670539227395297
 -1.4338877571995230  2.7600178803834656  9.6663566483669729
  1.3469377129596658 13.9936175547262902 -0.1607536140387837
 -1.0130436041216180 22.5815091918096158  5.8196578889743247
  4.8790782365543217 19.2289018583231304  7.1665432685717052
  2.3382003284036390 11.1769515725310047  3.6457850005645605
  0.1931467672634982  6.9929654469552149  8.2771393261860933
 18.3547196784884896 17.9554504115033282  4.0282015923855932
  0.6429758656786736  0.0550930624475083  2.6264178120759225
  7.3588986423087341  1.6403625654099958  4.7828006483203032
 13.7689849233972268 19.6610065250507198  4.6838064067201364
  0.9214180944592332 16.5718080653070423  5.9516431997920645
 12.5446595749797822  4.3181679672160733  3.8590508220200279
 16.8452968220058672 12.0580892406872753  0.9898800629305006
 14.3217633667612425 16.2029369631689484  6.1124310961163264
  9.2301313563283145  4.3823813986728961  5.9307809772284985
  5.3317448792669273  2.5644992246716098  7.4970501008251205
 18.0882637739946937  9.9162126638704997  6.8522602137858080
 14.8598307538594696 13.9815303373027167  0.3210380775534800
 13.7553040411847256  4.6797545672625951  0.2096657090216112
 12.5247389712313186 20.0042432944810074  7.7975270851958802
 17.3664863952228501  3.5931339163346094  7.6541666042724259
 16.2199458155372831  6.7042485105166181  3.6056952029910252
 16.7421793674112713 18.7261784091553025  7.2404952083224128
 10.7232024898431781  3.7733183522128471  0.1320979029406486
  7.0958743259589827 11.9916751344752797  2.8799468743059182
 10.5152355137601656 20.3235490703383626 -0.4586097113545575
 18.8159533684366629 14.2915991148540371 -0.7768007748063310
  1.2883609073311009 21.4537790297174418  2.6676184927632622
 10.6397177251792723 20.8421393113205902  4.2666919018814653
 12.9981319234525028 22.9941178174264387  4.0225081276424968
  4.5911751595171486  4.2247859277297843  3.8272834604708073
 11.9508654093157745 17.9194828671690338  7.5508442355827983
 13.5253100971790623  8.2898905360892741  4.4340279284405550
 21.5052419709954457 17.0646246114132616  4.3451509108041257
 25.3219018469108157 16.7660550234484695  0.1924408103577041
  2.3229965240224337 21.8453722094035037  7.7787895231682649
  6.4247061020678711 16.1534118920954270  1.2783389122016069
  5.5508806785522236 22.1714692936941056  6.3200420626496525
 21.9685738947064237 14.7232447118702421  1.9098400648298719
 16.5542273337919319  1.1779550011608055  2.8895382495365149
  4.8893848898180927  6.2189097687545249  8.6572765393442310
 17.8903145910258630  0.7825917336863735  6.0057146130192338
 22.7080167764860903  1.9523814527567338  2.0173278517156223
 18.9485062837806204 20.6839959892235044  0.9360712793818302
 -0.1077514881783528  0.9708860145448460  6.6155184289117850
 -3.1740986728713070  1.8181295229718542  7.6925198618626442
 14.0744272050765744 21.1768143088738476 -1.0156260689429655
  5.4783995600197981 16.1906142673399636  8.1324825865976749
  0.8169537498460255 13.1045439810273923  7.4684291881953264
 10.5076110314605877 12.1279186378941510  0.4797835608620674
  7.6855646462227876 18.2499705392074496  4.0735875819990559
 17.4403183337831784 14.9749545060807048  6.3020358922147359
 -2.3133310497963708  5.3702000918786492  7.5654943066818978
 -3.8535052857765639 21.1944442556850881  8.9237960185531549
 22.3254228068668290 15.2239909839390553 -1.1801451846370490
 -1.1639115967419946  3.8983854969702056  2.6693458452871828
  7.2617209738129409 19.0229525627939466 -0.7854379228434243
 24.3380875918056283  8.0534841767362089 -0.1888895130517799
 24.1043442440018545  6.9493915660698278  1.4854281135148106
 19.0125328187653189 16.8094205039020999  0.7586005133863714
 12.7559408534400642  9.6865112435212755  0.6086216886025461
 15.2662233158789018 12.2766317838882397  6.8226098840610661
  5.1196818786896241 15.2834079547233532  3.0101182892564351
