ADDGRID = True
ALGO = Fast
EDIFF = 1e-06
EDIFFG = -0.05
ENCUT = 520.0
IBRION = 1
ISIF = 2
ISMEAR = 0
ISPIN = 2
ISYM = 0
LASPH = True
LDAU = True
LDAUJ = 0 0 0 0
LDAUL = 0 0 2 0
LDAUPRINT = 1
LDAUTYPE = 2
LDAUU = 0 0 4.38 0
LMAXMIX = 4
LORBIT = 11
LREAL = False
LWAVE = False
MAGMOM = 93*0.6
NELM = 100
NELMIN = 3
NSW = 450
POTIM = 0.2
PREC = Accurate
SIGMA = 0.05
IMAGES = 7
SPRING = -5.0
ICHAIN = 0
LCLIMB = .TRUE.
LNEBCELL = .FALSE.
IOPT = 3 # QM (Quick-Min) force based optimizers is used and good for high force far from minimum
