Cu  O                                   
   1.00000000000000     
     4.4270852866191799   -2.5559788819550100    0.0000000000000000
     0.0000000000000000    5.1119577639100298    0.0000000000000000
     0.0000000000000000    0.0000000000000000   15.0000000000000000
   Cu   O 
    16     1
Selective dynamics
Direct
  0.0000000000000000  0.0000000000000000  0.0000000000000000   F   F   F
  0.8318583227413614  0.6681365335697682  0.2786017032244776   T   T   T
  0.5047809020092318  0.5095565984922309  0.4213767626528672   T   T   T
  0.5000000000000000  0.5000000000000000  0.0000000000000000   F   F   F
  0.1666666666666643  0.8333333333333357  0.1391298678693147   F   F   F
  0.3362667789366756  0.6681324164733395  0.2786021431220866   T   T   T
 -0.0000006755694081  0.4999982681803947  0.4116269502079551   T   T   T
  0.6666666666666643  0.8333333333333357  0.1391298678693147   F   F   F
  0.0000000000000000  0.5000000000000000  0.0000000000000000   F   F   F
  0.8318628724089773  0.1637291682319038  0.2786007804490727   T   T   T
  0.5047658227936568  0.9952252272111830  0.4213823161489604   T   T   T
  0.5000000000000000  0.0000000000000000  0.0000000000000000   F   F   F
  0.1666666666666643  0.3333333333333357  0.1391298678693147   F   F   F
  0.3333316697026596  0.1666644761986429  0.2765799732386023   T   T   T
  0.9904524260004033  0.9952193871305987  0.4213783531171409   T   T   T
  0.6666666666666643  0.3333333333333357  0.1391298678693147   F   F   F
  0.3333217767627457  0.1667013984857483  0.4971641601687798   T   T   T
 
  0.00000000E+00  0.00000000E+00  0.00000000E+00
  0.00000000E+00  0.00000000E+00  0.00000000E+00
  0.00000000E+00  0.00000000E+00  0.00000000E+00
  0.00000000E+00  0.00000000E+00  0.00000000E+00
  0.00000000E+00  0.00000000E+00  0.00000000E+00
  0.00000000E+00  0.00000000E+00  0.00000000E+00
  0.00000000E+00  0.00000000E+00  0.00000000E+00
  0.00000000E+00  0.00000000E+00  0.00000000E+00
  0.00000000E+00  0.00000000E+00  0.00000000E+00
  0.00000000E+00  0.00000000E+00  0.00000000E+00
  0.00000000E+00  0.00000000E+00  0.00000000E+00
  0.00000000E+00  0.00000000E+00  0.00000000E+00
  0.00000000E+00  0.00000000E+00  0.00000000E+00
  0.00000000E+00  0.00000000E+00  0.00000000E+00
  0.00000000E+00  0.00000000E+00  0.00000000E+00
  0.00000000E+00  0.00000000E+00  0.00000000E+00
  0.00000000E+00  0.00000000E+00  0.00000000E+00
