Cu  O                                   
   1.00000000000000     
     4.4270852866191799   -2.5559788819550100    0.0000000000000000
     0.0000000000000000    5.1119577639100298    0.0000000000000000
     0.0000000000000000    0.0000000000000000   15.0000000000000000
   Cu   O 
    16     1
Selective dynamics
Direct
  0.0000000000000000  0.0000000000000000  0.0000000000000000   F   F   F
  0.8318369976379875  0.6681630023620125  0.2789339815903303   T   T   T
  0.5049976333422350  0.5099952766844709  0.4221503244160943   T   T   T
  0.5000000000000000  0.5000000000000000  0.0000000000000000   F   F   F
  0.1666666666666643  0.8333333333333357  0.1391298678693147   F   F   F
  0.3363260047240321  0.6681630023620125  0.2789339815903303   T   T   T
 -0.0000000000000000  0.5000000000000000  0.4120433092886844   T   T   T
  0.6666666666666643  0.8333333333333357  0.1391298678693147   F   F   F
  0.0000000000000000  0.5000000000000000  0.0000000000000000   F   F   F
  0.8318369976379875  0.1636739952759678  0.2789339815903303   T   T   T
  0.5049976333422350  0.9950023666577650  0.4221503244160943   T   T   T
  0.5000000000000000  0.0000000000000000  0.0000000000000000   F   F   F
  0.1666666666666643  0.3333333333333357  0.1391298678693147   F   F   F
  0.3333333333333357  0.1666666666666643  0.2769766985800454   T   T   T
  0.9900047233155291  0.9950023666577650  0.4221503244160943   T   T   T
  0.6666666666666643  0.3333333333333357  0.1391298678693147   F   F   F
  0.3333333329999988  0.1666666699999979  0.4976705321643855   T   T   T
 
  0.00000000E+00  0.00000000E+00  0.00000000E+00
  0.00000000E+00  0.00000000E+00  0.00000000E+00
  0.00000000E+00  0.00000000E+00  0.00000000E+00
  0.00000000E+00  0.00000000E+00  0.00000000E+00
  0.00000000E+00  0.00000000E+00  0.00000000E+00
  0.00000000E+00  0.00000000E+00  0.00000000E+00
  0.00000000E+00  0.00000000E+00  0.00000000E+00
  0.00000000E+00  0.00000000E+00  0.00000000E+00
  0.00000000E+00  0.00000000E+00  0.00000000E+00
  0.00000000E+00  0.00000000E+00  0.00000000E+00
  0.00000000E+00  0.00000000E+00  0.00000000E+00
  0.00000000E+00  0.00000000E+00  0.00000000E+00
  0.00000000E+00  0.00000000E+00  0.00000000E+00
  0.00000000E+00  0.00000000E+00  0.00000000E+00
  0.00000000E+00  0.00000000E+00  0.00000000E+00
  0.00000000E+00  0.00000000E+00  0.00000000E+00
  0.00000000E+00  0.00000000E+00  0.00000000E+00
