Ni   S                                  
   1.00000000000000     
    20.0000000000000000    0.0000000000000000    0.0000000000000000
     0.0000000000000000   20.0000000000000000    0.0000000000000000
     0.0000000000000000    0.0000000000000000   20.0000000000000000
   Ni   S 
    55     1
Direct
  0.3504977766637298  0.5950953914913175  0.4105397132707553
  0.4510420088182510  0.6628410367883530  0.3776461551426112
  0.4127343308007969  0.6622524401518667  0.4974712099293992
  0.5130961168754722  0.7228062970539222  0.4639415792716138
  0.5149605041551291  0.6079920498510689  0.4633548393368985
  0.5772716263599857  0.6649471579566348  0.3780840446596170
  0.6156066039492327  0.6650471753368346  0.4973126282145527
  0.3175832589585644  0.5922070226039277  0.5277733460648202
  0.3510250278484272  0.4884054813066362  0.5823765475744290
  0.4161320813586424  0.5422193936701841  0.4968145872086187
  0.4131695763397543  0.5971782700009739  0.6041206636926959
  0.5140792625554089  0.6640168865059133  0.5700604923813425
  0.5156772013978963  0.5434656788414483  0.5692162957344444
  0.6152781659487543  0.5440281773873639  0.4960163247631624
  0.6169117475734369  0.5992121973764163  0.6034509711430497
  0.3931058838742138  0.5934681830059575  0.2962586233996941
  0.3519761478720340  0.4892600821125100  0.3441128534458721
  0.4534523239203672  0.4905180441928749  0.2707353369437496
  0.4538441974428320  0.5422260100239712  0.3794186224995718
  0.5150657943107741  0.5980921270155132  0.2914195553927547
  0.5168442322096161  0.4387229177735533  0.3592824937119763
  0.5792189171432962  0.4921022640737809  0.2708676799255413
  0.5771640155856355  0.5442195317150972  0.3792831225643905
  0.3128737337573474  0.4879238807839639  0.4640264555277087
  0.3520813545970651  0.3813703002777047  0.5144271879054600
  0.4170653586067664  0.4372074278633513  0.4319347497043482
  0.4544583740701579  0.4369655970774380  0.5490143581277352
  0.5161394153753430  0.4909166877978119  0.4644642144905169
  0.5176357294331982  0.3737866463695882  0.4637269304528531
  0.6162036245160626  0.4398005153241907  0.4316102354548602
  0.5773278839014541  0.4388756732663074  0.5496651433475538
  0.6793646999422120  0.5999703419985409  0.4110520575782022
  0.7120414427227566  0.5963987666896646  0.5283521493549856
  0.6796642285469336  0.4927355231532597  0.5838294625170106
  0.6368603924189422  0.5964037718313815  0.2967815210782582
  0.6807196912646060  0.4931563416567878  0.3449571871781230
  0.7194362950060484  0.4928003578826188  0.4644057441554439
  0.6806971645998354  0.3857971565687527  0.5176422900119738
  0.4539740749635880  0.4962518500300926  0.6611687346471551
  0.5163671311107242  0.5976920271035528  0.6709621335990397
  0.5793304058465186  0.4928304095878569  0.6573149966988717
  0.3900432770661622  0.3791067205859293  0.6269656353824072
  0.4550686284297837  0.3167373258691440  0.5482940242889971
  0.5136386675567299  0.3854098500476036  0.6425907238773649
  0.5792667273506756  0.3188780105476111  0.5516900737206881
  0.6380842591669618  0.3884727721360006  0.6319943163915446
  0.4163146627386644  0.3830420673432693  0.3236952641228980
  0.5178101097412210  0.3878204027007797  0.2564034882045613
  0.6191346374919465  0.3854833682769860  0.3241085398104637
  0.3201534041861089  0.3851991951060598  0.3974842233707108
  0.4164130558221752  0.3163036289816377  0.4297233205603285
  0.5177621470387929  0.3184261786515246  0.3566686590897216
  0.6198439989823120  0.3194839219825293  0.4308770534645919
  0.7145399012749695  0.3895810555972863  0.4001800306983010
  0.5195458438810537  0.2589561215659048  0.4628340453057604
  0.4143582159909815  0.4197003135860041  0.7183784776476422
 
             NaN             NaN             NaN
             NaN             NaN             NaN
             NaN             NaN             NaN
             NaN             NaN             NaN
             NaN             NaN             NaN
             NaN             NaN             NaN
             NaN             NaN             NaN
             NaN             NaN             NaN
             NaN             NaN             NaN
             NaN             NaN             NaN
             NaN             NaN             NaN
             NaN             NaN             NaN
             NaN             NaN             NaN
             NaN             NaN             NaN
             NaN             NaN             NaN
             NaN             NaN             NaN
             NaN             NaN             NaN
             NaN             NaN             NaN
             NaN             NaN             NaN
             NaN             NaN             NaN
             NaN             NaN             NaN
             NaN             NaN             NaN
             NaN             NaN             NaN
             NaN             NaN             NaN
             NaN             NaN             NaN
             NaN             NaN             NaN
             NaN             NaN             NaN
             NaN             NaN             NaN
             NaN             NaN             NaN
             NaN             NaN             NaN
             NaN             NaN             NaN
             NaN             NaN             NaN
             NaN             NaN             NaN
             NaN             NaN             NaN
             NaN             NaN             NaN
             NaN             NaN             NaN
             NaN             NaN             NaN
             NaN             NaN             NaN
             NaN             NaN             NaN
             NaN             NaN             NaN
             NaN             NaN             NaN
             NaN             NaN             NaN
             NaN             NaN             NaN
             NaN             NaN             NaN
             NaN             NaN             NaN
             NaN             NaN             NaN
             NaN             NaN             NaN
             NaN             NaN             NaN
             NaN             NaN             NaN
             NaN             NaN             NaN
             NaN             NaN             NaN
             NaN             NaN             NaN
             NaN             NaN             NaN
             NaN             NaN             NaN
             NaN             NaN             NaN
             NaN             NaN             NaN
