Ni   S 
   1.00000000000000     
  20.0000000000000000   0.0000000000000000   0.0000000000000000
   0.0000000000000000  20.0000000000000000   0.0000000000000000
   0.0000000000000000   0.0000000000000000  20.0000000000000000
Ni   S 
55  1  
Direct
  0.3500981985722260  0.5959622968275160  0.4103396627719680  
  0.4514704009016630  0.6632462113799630  0.3773856045476980  
  0.4119277275481110  0.6626175869557470  0.4970165011215930  
  0.5129318771132180  0.7233951492089330  0.4644299105059770  
  0.5146771640654531  0.6085620224964360  0.4643509241631850  
  0.5770714422962580  0.6650573586140640  0.3777951214255920  
  0.6157958302471580  0.6653130881228720  0.4969917333947650  
  0.3164998721159830  0.5928012609028170  0.5276724728355480  
  0.3495957291792420  0.4888532054518460  0.5835308048834090  
  0.4149132222467530  0.5423216178276820  0.4966671775321600  
  0.4128622848828770  0.5965038981408670  0.6042563032978880  
  0.5137362559501990  0.6634663806569280  0.5712460056226970  
  0.5146615148734380  0.5428922510462399  0.5703145875147800  
  0.6154152787392350  0.5446672249909030  0.4969765704160810  
  0.6161236966740520  0.5987143099883880  0.6044348069548700  
  0.3926700432443080  0.5937675594294590  0.2955400383221870  
  0.3517519166860340  0.4889744633055460  0.3440976362089070  
  0.4538196507896050  0.4908407683816160  0.2702061301455100  
  0.4535452636086600  0.5427951167650780  0.3788929740589350  
  0.5151667982352630  0.5980026082304520  0.2909210501319920  
  0.5166843094978329  0.4384023095482450  0.3587435954141610  
  0.5791937280624990  0.4922710568374460  0.2705710911140780  
  0.5775293732081440  0.5445071245110780  0.3792050961786230  
  0.3125431911028610  0.4879017144423440  0.4641464136063720  
  0.3525152943563370  0.3811026429277720  0.5170733755866830  
  0.4163427864091670  0.4367078620723320  0.4319226140131460  
  0.4548335277827820  0.4374561820179040  0.5498749297178380  
  0.5158747096500700  0.4907045612946060  0.4645672135314670  
  0.5174267404294000  0.3728275316835910  0.4639915739955070  
  0.6169268935541939  0.4394406626725170  0.4316309488814480  
  0.5783471719130731  0.4383143258059830  0.5497508917552240  
  0.6796163515287010  0.6000311392911970  0.4110107489170360  
  0.7123962579872720  0.5969177223020670  0.5290178938205230  
  0.6805437066407760  0.4923158818965940  0.5838169933188340  
  0.6374261958098590  0.5967355162864580  0.2960644109784880  
  0.6809500860990600  0.4931807613009840  0.3445292231726430  
  0.7195724268639270  0.4933333614507090  0.4640423524615680  
  0.6819041558976480  0.3856197500543100  0.5175293425456080  
  0.4524427537190830  0.4916786645402450  0.6630898529583580  
  0.5150553926922680  0.5960717680697700  0.6725302066082860  
  0.5793841502233260  0.4916544259035330  0.6574399476462320  
  0.3934149470511770  0.3836550424484170  0.6330413544421700  
  0.4547251244142460  0.3167331535552340  0.5497479570775990  
  0.5187288775929990  0.3814964546064840  0.6398084369450810  
  0.5807442858111000  0.3180686267247450  0.5506457974568520  
  0.6405904006701920  0.3873769387349310  0.6320306995969320  
  0.4157480197865130  0.3829942327340700  0.3235214454769630  
  0.5174076863391051  0.3873268126196980  0.2555535572593900  
  0.6192973439161590  0.3858254894596980  0.3237194487323980  
  0.3195200180598120  0.3846407969514520  0.3984389137751730  
  0.4163009095381800  0.3165044985880310  0.4308860895847740  
  0.5182737051510390  0.3180216628890310  0.3564587890985820  
  0.6199176438800360  0.3190477737409410  0.4303358607385950  
  0.7154149532719960  0.3892444402760800  0.3997817457627870  
  0.5193966461077300  0.2580177683879650  0.4629894596009190  
  0.4172161476783810  0.4219135973168950  0.7115523170406060  
