Hf   C    O 
   1.00000000000000     
   9.2947998047000002   0.0000000000000000   0.0000000000000000
   0.0000000000000000   9.2947998047000002   0.0000000000000000
   0.0000000000000000   0.0000000000000000  21.9710998535000002
Hf   C    O 
32  32  1  
Direct
  0.0029367565400128  0.9998998927005648  0.3123112708226140 T T T
  0.2501604451821481  0.2471854623420605  0.3122388775217212 T T T
  0.0000000000000000  0.2500000000000000  0.0000000000000000 F F F
  0.2500000000000000  0.0000000000000000  0.0000000000000000 F F F
  0.0000000000000000  0.0000000000000000  0.1057599999999965 F F F
  0.2500000000000000  0.2500000000000000  0.1057599999999965 F F F
  0.9999367215575220  0.2501188876579580  0.2102200450943267 T T T
  0.2500909969888960  0.9998577904907030  0.2097457964302190 T T T
  0.4973209254666142  0.9998088531019970  0.3123071361793110 T T T
  0.7501024544574598  0.2380213567874704  0.3129572102920885 T T T
  0.5000000000000000  0.2500000000000000  0.0000000000000000 F F F
  0.7500000000000000  0.0000000000000000  0.0000000000000000 F F F
  0.5000000000000000  0.0000000000000000  0.1057599999999965 F F F
  0.7500000000000000  0.2500000000000000  0.1057599999999965 F F F
  0.5002904268107309  0.2500801777193495  0.2101879092486882 T T T
  0.7501058556556512  0.9998892460532568  0.2092228764563031 T T T
  0.0120662230886113  0.4998975576594737  0.3130800001026640 T T T
  0.2500982658902817  0.7525070207147824  0.3122821714075219 T T T
  0.0000000000000000  0.7500000000000000  0.0000000000000000 F F F
  0.2500000000000000  0.5000000000000000  0.0000000000000000 F F F
  0.0000000000000000  0.5000000000000000  0.1057599999999965 F F F
  0.2500000000000000  0.7500000000000000  0.1057599999999965 F F F
  0.9999009487686370  0.7496898900972335  0.2102266737795343 T T T
  0.2500678248856375  0.4998935940954061  0.2091906562834317 T T T
  0.4881847211091450  0.4998094071730100  0.3130119025476719 T T T
  0.7501204232335233  0.7615998878368258  0.3130368475158377 T T T
  0.5000000000000000  0.7500000000000000  0.0000000000000000 F F F
  0.7500000000000000  0.5000000000000000  0.0000000000000000 F F F
  0.5000000000000000  0.5000000000000000  0.1057599999999965 F F F
  0.7500000000000000  0.7500000000000000  0.1057599999999965 F F F
  0.5002307847884776  0.7496694074713868  0.2102113448033330 T T T
  0.7501161607551240  0.4999035847334344  0.2081468535403886 T T T
  0.2500000000000000  0.2500000000000000  0.0000000000000000 F F F
  0.0000000000000000  0.0000000000000000  0.0000000000000000 F F F
  0.2501041259143226  0.9998286315477790  0.3162252035524089 T T T
  0.9985301639706240  0.2515518555667440  0.3181942867374988 T T T
  0.2500908719554302  0.2496889576511289  0.2113680914807233 T T T
  0.0003387052280299  0.9999207890830611  0.2113973193054105 T T T
  0.2500000000000000  0.0000000000000000  0.1057599999999965 F F F
  0.0000000000000000  0.2500000000000000  0.1057599999999965 F F F
  0.7500000000000000  0.2500000000000000  0.0000000000000000 F F F
  0.5000000000000000  0.0000000000000000  0.0000000000000000 F F F
  0.7501041674895187  0.9998100255123062  0.3158280783980729 T T T
  0.5017337013308643  0.2514907538601885  0.3181741446170926 T T T
  0.7501168508359464  0.2502712520963964  0.2122509314716762 T T T
  0.4998348164936284  0.9998911949101360  0.2113854986959240 T T T
  0.7500000000000000  0.0000000000000000  0.1057599999999965 F F F
  0.5000000000000000  0.2500000000000000  0.1057599999999965 F F F
  0.2500000000000000  0.7500000000000000  0.0000000000000000 F F F
  0.0000000000000000  0.5000000000000000  0.0000000000000000 F F F
  0.2501284216899063  0.4998149718974598  0.3158398156771015 T T T
  0.9985261822402668  0.7481606986034286  0.3182164382838780 T T T
  0.2500584818556434  0.7501164119082183  0.2113809703301352 T T T
  0.9997520951344504  0.4999320557936898  0.2122778048693137 T T T
  0.2500000000000000  0.5000000000000000  0.1057599999999965 F F F
  0.0000000000000000  0.7500000000000000  0.1057599999999965 F F F
  0.7500000000000000  0.7500000000000000  0.0000000000000000 F F F
  0.5000000000000000  0.5000000000000000  0.0000000000000000 F F F
  0.7320677324560599  0.5720813140911055  0.5806079071981867 T T T
  0.5017215087067183  0.7480685895092234  0.3181972997090811 T T T
  0.7500919810390313  0.7494532695331796  0.2122807573039282 T T T
  0.5004064582381654  0.4998978578552909  0.2122621022922150 T T T
  0.7500000000000000  0.5000000000000000  0.1057599999999965 F F F
  0.5000000000000000  0.7500000000000000  0.1057599999999965 F F F
  0.6698480817191135  0.5186030050307889  0.6193797410967642 T T T
