IS                                      
   1.00000000000000     
    20.0000000000000000    0.0000000000000000    0.0000000000000000
     0.0000000000000000   20.0000000000000000    0.0000000000000000
     0.0000000000000000    0.0000000000000000   20.0000000000000000
   Ni   S 
    55     1
Direct
  0.3499076607716639  0.5960820216374692  0.4102741981914976
  0.4512884949942796  0.6631532992347230  0.3776532258578532
  0.4117216768325233  0.6628026127368309  0.4970870484327055
  0.5127381658239526  0.7235620805900063  0.4645419219221688
  0.5145815002964748  0.6086019519194747  0.4645048859503612
  0.5769589268594051  0.6650822453978972  0.3779332705111758
  0.6155466824445499  0.6653105391005599  0.4970630643335323
  0.3166845569372747  0.5925843741521651  0.5281078714956940
  0.3510472577901987  0.4880011431261163  0.5824350376789482
  0.4149689588248420  0.5426435139334121  0.4964168448945991
  0.4124964236624986  0.5959636896151267  0.6046971157506079
  0.5135396608949433  0.6635005917730853  0.5713343017502849
  0.5144178606835939  0.5429145590432168  0.5704468536732843
  0.6152539873784397  0.5445677580308333  0.4970163779215276
  0.6158746855999190  0.5987179473762305  0.6044914344339528
  0.3926543458743187  0.5938360953372164  0.2955774305315261
  0.3518542895749285  0.4890617601162533  0.3442525942434497
  0.4539747033892713  0.4910183814294130  0.2700497769263600
  0.4534973679345060  0.5426871962403680  0.3789210218311228
  0.5151760907950133  0.5979350202710031  0.2909665250499290
  0.5165143548137693  0.4384656093308003  0.3587822315861069
  0.5791039503098084  0.4923060196402645  0.2706227822902028
  0.5775042228608573  0.5445184537320062  0.3793192624626988
  0.3124595765246230  0.4878604137828810  0.4641080961796309
  0.3516920622179350  0.3811932961794615  0.5172204125779073
  0.4161988048684194  0.4366035247400006  0.4325327721773345
  0.4549383110105792  0.4373739353411455  0.5500525429895006
  0.5158199602787538  0.4906652022752444  0.4646734118097420
  0.5176268771501364  0.3728259898340108  0.4636838489895152
  0.6169225338718686  0.4394881500130131  0.4317849819260265
  0.5778869944762091  0.4381113289041371  0.5501429394635572
  0.6795559490629102  0.6000273021727294  0.4110668958954738
  0.7121093327112296  0.5968512440474546  0.5290875444205231
  0.6802015218401078  0.4923346110565874  0.5839069048847321
  0.6373618515716574  0.5968131552314581  0.2961835651414781
  0.6809273248684347  0.4931203434242181  0.3445901266232603
  0.7195850864362895  0.4933565757925713  0.4639519076709330
  0.6816270604938393  0.3857054131917103  0.5176653798422055
  0.4524045576452638  0.4915775442777264  0.6633222799769433
  0.5144120850617283  0.5964261403434166  0.6724774164552632
  0.5797265826645429  0.4919941479605062  0.6573429808247332
  0.3928540493336319  0.3838748266601832  0.6329023657844605
  0.4543310646721852  0.3172768399929694  0.5495004520476545
  0.5193222796737941  0.3809478054764586  0.6418880196072149
  0.5805166122771391  0.3181248944409061  0.5509920936435665
  0.6409541946093759  0.3870982716420331  0.6319564448309272
  0.4157305051288026  0.3831754865370062  0.3236921524213639
  0.5173702893578336  0.3873020496564439  0.2556494391888574
  0.6190608224788008  0.3856011276330303  0.3239612067324464
  0.3195022096413651  0.3847218217607434  0.3981050525531239
  0.4160302224270815  0.3166321248208396  0.4310367854577600
  0.5180735366955210  0.3178398353613497  0.3564900056665865
  0.6198064487700946  0.3188720470790908  0.4304716292575019
  0.7152446605988785  0.3891498011801453  0.3998714316114945
  0.5190172684518577  0.2580620638718985  0.4634797908946417
  0.4498336207820774  0.4010357825541692  0.7221839847340555
 
  0.00000000E+00  0.00000000E+00  0.00000000E+00
  0.00000000E+00  0.00000000E+00  0.00000000E+00
  0.00000000E+00  0.00000000E+00  0.00000000E+00
  0.00000000E+00  0.00000000E+00  0.00000000E+00
  0.00000000E+00  0.00000000E+00  0.00000000E+00
  0.00000000E+00  0.00000000E+00  0.00000000E+00
  0.00000000E+00  0.00000000E+00  0.00000000E+00
  0.00000000E+00  0.00000000E+00  0.00000000E+00
  0.00000000E+00  0.00000000E+00  0.00000000E+00
  0.00000000E+00  0.00000000E+00  0.00000000E+00
  0.00000000E+00  0.00000000E+00  0.00000000E+00
  0.00000000E+00  0.00000000E+00  0.00000000E+00
  0.00000000E+00  0.00000000E+00  0.00000000E+00
  0.00000000E+00  0.00000000E+00  0.00000000E+00
  0.00000000E+00  0.00000000E+00  0.00000000E+00
  0.00000000E+00  0.00000000E+00  0.00000000E+00
  0.00000000E+00  0.00000000E+00  0.00000000E+00
  0.00000000E+00  0.00000000E+00  0.00000000E+00
  0.00000000E+00  0.00000000E+00  0.00000000E+00
  0.00000000E+00  0.00000000E+00  0.00000000E+00
  0.00000000E+00  0.00000000E+00  0.00000000E+00
  0.00000000E+00  0.00000000E+00  0.00000000E+00
  0.00000000E+00  0.00000000E+00  0.00000000E+00
  0.00000000E+00  0.00000000E+00  0.00000000E+00
  0.00000000E+00  0.00000000E+00  0.00000000E+00
  0.00000000E+00  0.00000000E+00  0.00000000E+00
  0.00000000E+00  0.00000000E+00  0.00000000E+00
  0.00000000E+00  0.00000000E+00  0.00000000E+00
  0.00000000E+00  0.00000000E+00  0.00000000E+00
  0.00000000E+00  0.00000000E+00  0.00000000E+00
  0.00000000E+00  0.00000000E+00  0.00000000E+00
  0.00000000E+00  0.00000000E+00  0.00000000E+00
  0.00000000E+00  0.00000000E+00  0.00000000E+00
  0.00000000E+00  0.00000000E+00  0.00000000E+00
  0.00000000E+00  0.00000000E+00  0.00000000E+00
  0.00000000E+00  0.00000000E+00  0.00000000E+00
  0.00000000E+00  0.00000000E+00  0.00000000E+00
  0.00000000E+00  0.00000000E+00  0.00000000E+00
  0.00000000E+00  0.00000000E+00  0.00000000E+00
  0.00000000E+00  0.00000000E+00  0.00000000E+00
  0.00000000E+00  0.00000000E+00  0.00000000E+00
  0.00000000E+00  0.00000000E+00  0.00000000E+00
  0.00000000E+00  0.00000000E+00  0.00000000E+00
  0.00000000E+00  0.00000000E+00  0.00000000E+00
  0.00000000E+00  0.00000000E+00  0.00000000E+00
  0.00000000E+00  0.00000000E+00  0.00000000E+00
  0.00000000E+00  0.00000000E+00  0.00000000E+00
  0.00000000E+00  0.00000000E+00  0.00000000E+00
  0.00000000E+00  0.00000000E+00  0.00000000E+00
  0.00000000E+00  0.00000000E+00  0.00000000E+00
  0.00000000E+00  0.00000000E+00  0.00000000E+00
  0.00000000E+00  0.00000000E+00  0.00000000E+00
  0.00000000E+00  0.00000000E+00  0.00000000E+00
  0.00000000E+00  0.00000000E+00  0.00000000E+00
  0.00000000E+00  0.00000000E+00  0.00000000E+00
  0.00000000E+00  0.00000000E+00  0.00000000E+00
