NEB image 04 - H hop on a toy Cu(100) 5-atom model (illustrative geometry)
1.0
    4.0000000000    0.0000000000    0.0000000000
    0.0000000000    4.0000000000    0.0000000000
    0.0000000000    0.0000000000   14.0000000000
Cu H
4 1
Selective dynamics
Direct
    0.0000000000    0.0000000000    0.2000000000   F F F
    0.5000000000    0.0000000000    0.2000000000   F F F
    0.0000000000    0.5000000000    0.2000000000   F F F
    0.5000000000    0.5000000000    0.2000000000   F F F
    0.75000    0.2500000000    0.32000   T T T
