Li   Nb   Mo   O                        
   1.00000000000000     
    22.7851428986000002    0.0000000000000000    0.0000000000000000
     0.0000000000000000    3.8768503666000003    0.0000000000000000
    -9.9730516296000005    0.0000024128000000   15.1282481845000003
   Li   Nb   Mo   O 
     1    24     2    66
Direct
  0.3313885868464822  0.7511914279576501  0.6177578633551463
  0.3673527859444125  0.0053420264684188  0.0460720188148117
  0.6337297182653061  0.0113358399184182  0.9540502269987577
  0.8654708618052264  0.5078654297160984  0.0449437017181299
  0.1311506843259272  0.5088077271762880  0.9554105408392393
  0.2489750862762034  0.0036941812447990  0.1369899756528877
  0.7521478432729286  0.0033285678060046  0.8618276893938341
  0.7478649220003712  0.5043727014674442  0.1378280001778108
  0.2494369708388060  0.5017415155710291  0.8650530028619361
  0.1293136777257450  0.9976057913624130  0.2295750341963928
  0.8689091686786973  0.9989629753049708  0.7675039667956025
  0.6316549369436144  0.4994764882457113  0.2327013143914755
  0.3695383089211378  0.4686524108141201  0.7754795561624809
  0.4197574695596465  0.9697521405377769  0.3788316776701013
  0.5841331600470143  0.9677513085430869  0.6174769012132715
  0.9173716158047791  0.4665989588741505  0.3818939472179907
  0.0815124049211243  0.4639769149969667  0.6207593169765399
  0.2969323248761149  0.0326337219970976  0.4645558096722081
  0.7027318942937922  0.0041718800879061  0.5263698831379581
  0.7986172526443055  0.5038149030710951  0.4731057318982969
  0.1973668049567232  0.4860123412171202  0.5244738241687776
  0.4677741524689927  0.0161976563909861  0.7128089152274146
  0.5375365627641403  0.0034173936634344  0.2868656100073218
  0.9632444617948522  0.5014882903953276  0.7128103530469272
  0.0331265472264232  0.5016815377179414  0.2843727865447629
  0.9992532861881912  0.2514739259944311  0.0004728577921137
  0.5004712594064856  0.7489018593783084  0.0001484458317772
 -0.0008894464089623  0.4888643899062488  0.5010662215001802
  0.5000254825605510  0.9922722995331128  0.4996683865202762
  0.1481761996032484  0.0036677833156118  0.9917268821293704
  0.8503334751107892  0.0043830896004852  0.0090085867734749
  0.6490437021254856  0.5060860885318238  0.9901631126169881
  0.3508233922268323  0.5008958507410772  0.0100776931948228
  0.3031458220717808  0.0005758784786856  0.0814675275110868
  0.6958131902141131  0.0042785158018923  0.9169143803579718
  0.8030380545046998  0.5045363038612244  0.0812991643438953
  0.1956079774336634  0.4978124537005288  0.9199750348742761
  0.0337686216530840  1.0005247904850458  0.0997378414662050
  0.9658045749201611  0.0006015229317319  0.9025644611581294
  0.5343271240862341  0.4993291090163207  0.0981493527219597
  0.4664444216335359  0.4941625747161508  0.9009367773323455
  0.4499557967408589  0.0031240902719095  0.1556731338955244
  0.5494906352014413  0.0124809469000517  0.8438259749101668
  0.9493802167166659  0.5019737928266578  0.1558657497408808
  0.0495321090116320  0.5053871191034947  0.8451279205736028
  0.1802749068120067  0.0003396089722682  0.1786190691346436
  0.8205184328528078  0.0036542213907196  0.8233706068408432
  0.6798401997763939  0.5044687116254790  0.1765893872722933
  0.3214933986527319  0.4831105720778567  0.8294907747707462
  0.0489565286924218  0.0004071205516841  0.2708761833778879
  0.9501999542836924  0.0018986159854011  0.7304969213225933
  0.5503066215993507  0.5025263377528352  0.2692421089841143
  0.4475006304161478  0.5107035019236540  0.7245275961781257
  0.3258502703201469  1.0011616838004593  0.2491339469195261
  0.6755738542024008  0.9995270461772904  0.7495448797326447
  0.8253806033084858  0.4992177476988272  0.2494750938677936
  0.1746748714960255  0.4988106180327276  0.7510518088888782
  0.4770864563400273  1.0029111790018101  0.3258495283737330
  0.5275646031847380  1.0065083515877222  0.6751851227345209
  0.9771176045974835  0.5000328797630752  0.3281210771407767
  0.0240482506512121  0.4966003102946129  0.6747460394195008
  0.2064259689839059  0.0138074655037135  0.3499234200625577
  0.7928811185318073  0.0021649289435642  0.6512077334704959
  0.7076442989531158  0.5022700269687640  0.3486921156265248
  0.2907673728325120  0.4771278638575264  0.6572736219097304
  0.3515123810692117  0.0172876526517418  0.4197614502161378
  0.6480141696514832  1.0014219022344530  0.5734406020516020
  0.8523929127690808  0.4998344687140536  0.4249995921991832
  0.1444394009568588  0.4922182630079372  0.5723662466009564
  0.2265502526205945 -0.0081148514845977  0.5266149457340951
  0.7789452442467726  0.0032587222635512  0.4811029098994544
  0.7221071006352255  0.5033488449527329  0.5183673134980195
  0.2833810090281635  0.5227877146826380  0.4872997040664351
  0.3818067501570447  0.0268709553803005  0.5927501639655178
  0.6223745569075736  0.0028059044475299  0.4035029444201229
  0.8784932086529494  0.5030245099647487  0.5959938668708099
  0.1228751487184875  0.4939221489575089  0.4042087334757120
  0.0905509681543556  0.9896108518734702  0.6319568699449652
  0.9102329698989392  0.9924085364755783  0.3683583147980951
  0.5910771368230175  0.4942130559096709  0.6301692752587817
  0.4107357546033942  0.4967052371386065  0.3680226009621670
  0.3908371024852897  0.9821262104160959  0.7643414129099330
  0.6060076101939993  0.0015693584172061  0.2313025533597795
  0.8942832281047949  0.5012488910352257  0.7685098667114117
  0.1062548632877383  0.5019065940821668  0.2323812755124140
  0.2745846469843357 -0.0015529462630083  0.8978276679916677
  0.7240840190122596  0.0051415388546539  0.1025131553360407
  0.7757362277945408  0.5039154141048533  0.8970354196568002
  0.2239551769941843  0.5029196083089058  0.1041285290817523
  0.4289081592127030 -0.0008773894838364  0.9867898683721046
  0.5712384956766809  0.0019056754968628  0.0130141983090033
  0.9282071475137158  0.5041507576505012  0.9870331897634469
  0.0708005915710337  0.5044470727001228  0.0143484417280855
 
  0.00000000E+00  0.00000000E+00  0.00000000E+00
  0.00000000E+00  0.00000000E+00  0.00000000E+00
  0.00000000E+00  0.00000000E+00  0.00000000E+00
  0.00000000E+00  0.00000000E+00  0.00000000E+00
  0.00000000E+00  0.00000000E+00  0.00000000E+00
  0.00000000E+00  0.00000000E+00  0.00000000E+00
  0.00000000E+00  0.00000000E+00  0.00000000E+00
  0.00000000E+00  0.00000000E+00  0.00000000E+00
  0.00000000E+00  0.00000000E+00  0.00000000E+00
  0.00000000E+00  0.00000000E+00  0.00000000E+00
  0.00000000E+00  0.00000000E+00  0.00000000E+00
  0.00000000E+00  0.00000000E+00  0.00000000E+00
  0.00000000E+00  0.00000000E+00  0.00000000E+00
  0.00000000E+00  0.00000000E+00  0.00000000E+00
  0.00000000E+00  0.00000000E+00  0.00000000E+00
  0.00000000E+00  0.00000000E+00  0.00000000E+00
  0.00000000E+00  0.00000000E+00  0.00000000E+00
  0.00000000E+00  0.00000000E+00  0.00000000E+00
  0.00000000E+00  0.00000000E+00  0.00000000E+00
  0.00000000E+00  0.00000000E+00  0.00000000E+00
  0.00000000E+00  0.00000000E+00  0.00000000E+00
  0.00000000E+00  0.00000000E+00  0.00000000E+00
  0.00000000E+00  0.00000000E+00  0.00000000E+00
  0.00000000E+00  0.00000000E+00  0.00000000E+00
  0.00000000E+00  0.00000000E+00  0.00000000E+00
  0.00000000E+00  0.00000000E+00  0.00000000E+00
  0.00000000E+00  0.00000000E+00  0.00000000E+00
  0.00000000E+00  0.00000000E+00  0.00000000E+00
  0.00000000E+00  0.00000000E+00  0.00000000E+00
  0.00000000E+00  0.00000000E+00  0.00000000E+00
  0.00000000E+00  0.00000000E+00  0.00000000E+00
  0.00000000E+00  0.00000000E+00  0.00000000E+00
  0.00000000E+00  0.00000000E+00  0.00000000E+00
  0.00000000E+00  0.00000000E+00  0.00000000E+00
  0.00000000E+00  0.00000000E+00  0.00000000E+00
  0.00000000E+00  0.00000000E+00  0.00000000E+00
  0.00000000E+00  0.00000000E+00  0.00000000E+00
  0.00000000E+00  0.00000000E+00  0.00000000E+00
  0.00000000E+00  0.00000000E+00  0.00000000E+00
  0.00000000E+00  0.00000000E+00  0.00000000E+00
  0.00000000E+00  0.00000000E+00  0.00000000E+00
  0.00000000E+00  0.00000000E+00  0.00000000E+00
  0.00000000E+00  0.00000000E+00  0.00000000E+00
  0.00000000E+00  0.00000000E+00  0.00000000E+00
  0.00000000E+00  0.00000000E+00  0.00000000E+00
  0.00000000E+00  0.00000000E+00  0.00000000E+00
  0.00000000E+00  0.00000000E+00  0.00000000E+00
  0.00000000E+00  0.00000000E+00  0.00000000E+00
  0.00000000E+00  0.00000000E+00  0.00000000E+00
  0.00000000E+00  0.00000000E+00  0.00000000E+00
  0.00000000E+00  0.00000000E+00  0.00000000E+00
  0.00000000E+00  0.00000000E+00  0.00000000E+00
  0.00000000E+00  0.00000000E+00  0.00000000E+00
  0.00000000E+00  0.00000000E+00  0.00000000E+00
  0.00000000E+00  0.00000000E+00  0.00000000E+00
  0.00000000E+00  0.00000000E+00  0.00000000E+00
  0.00000000E+00  0.00000000E+00  0.00000000E+00
  0.00000000E+00  0.00000000E+00  0.00000000E+00
  0.00000000E+00  0.00000000E+00  0.00000000E+00
  0.00000000E+00  0.00000000E+00  0.00000000E+00
  0.00000000E+00  0.00000000E+00  0.00000000E+00
  0.00000000E+00  0.00000000E+00  0.00000000E+00
  0.00000000E+00  0.00000000E+00  0.00000000E+00
  0.00000000E+00  0.00000000E+00  0.00000000E+00
  0.00000000E+00  0.00000000E+00  0.00000000E+00
  0.00000000E+00  0.00000000E+00  0.00000000E+00
  0.00000000E+00  0.00000000E+00  0.00000000E+00
  0.00000000E+00  0.00000000E+00  0.00000000E+00
  0.00000000E+00  0.00000000E+00  0.00000000E+00
  0.00000000E+00  0.00000000E+00  0.00000000E+00
  0.00000000E+00  0.00000000E+00  0.00000000E+00
  0.00000000E+00  0.00000000E+00  0.00000000E+00
  0.00000000E+00  0.00000000E+00  0.00000000E+00
  0.00000000E+00  0.00000000E+00  0.00000000E+00
  0.00000000E+00  0.00000000E+00  0.00000000E+00
  0.00000000E+00  0.00000000E+00  0.00000000E+00
  0.00000000E+00  0.00000000E+00  0.00000000E+00
  0.00000000E+00  0.00000000E+00  0.00000000E+00
  0.00000000E+00  0.00000000E+00  0.00000000E+00
  0.00000000E+00  0.00000000E+00  0.00000000E+00
  0.00000000E+00  0.00000000E+00  0.00000000E+00
  0.00000000E+00  0.00000000E+00  0.00000000E+00
  0.00000000E+00  0.00000000E+00  0.00000000E+00
  0.00000000E+00  0.00000000E+00  0.00000000E+00
  0.00000000E+00  0.00000000E+00  0.00000000E+00
  0.00000000E+00  0.00000000E+00  0.00000000E+00
  0.00000000E+00  0.00000000E+00  0.00000000E+00
  0.00000000E+00  0.00000000E+00  0.00000000E+00
  0.00000000E+00  0.00000000E+00  0.00000000E+00
  0.00000000E+00  0.00000000E+00  0.00000000E+00
  0.00000000E+00  0.00000000E+00  0.00000000E+00
  0.00000000E+00  0.00000000E+00  0.00000000E+00
  0.00000000E+00  0.00000000E+00  0.00000000E+00
